     Program PWSCF v.6.5 starts on 10Mar2020 at 14:26:29

     R & G space division:  proc/nbgrp/npool/nimage =     100
     Reading input from pw.in
     Message from routine read_cards :
     DEPRECATED: no units specified in CELL_PARAMETERS card
Warning: card 1 1 1  0 0 0 ignored

     Current dimensions of program PWSCF are:
     Max number of different atomic species (ntypx) = 10
     Max number of k-points (npk) =  40000
     Max angular momentum in pseudopotentials (lmaxx) =  3
     Message from routine cell_base_init:
     DEPRECATED: use true lattice parameter, not A to a.u. conversion factor

     gamma-point specific algorithms are used

     Message from routine setup:
     using ibrav=0 with symmetry is DISCOURAGED, use correct ibrav instead

     bravais-lattice index     =            0
     lattice parameter (alat)  =       1.0000  a.u.
     unit-cell volume          =   69174.1805 (a.u.)^3
     number of atoms/cell      =          512
     number of atomic types    =            2
     number of electrons       =      2058.00
     number of Kohn-Sham states=         1235
     kinetic-energy cutoff     =      40.0000  Ry
     charge density cutoff     =     600.0000  Ry
     convergence threshold     =      1.0E-10
     mixing beta               =       0.7000
     number of iterations used =            8  plain     mixing
     Exchange-correlation= SLA  PZ   NOGX NOGC
                           (   1   1   0   0   0   0   0)

     celldm(1)=   1.000000  celldm(2)=   0.000000  celldm(3)=   0.000000
     celldm(4)=   0.000000  celldm(5)=   0.000000  celldm(6)=   0.000000

     crystal axes: (cart. coord. in units of alat)
               a(1) = (  41.050143   0.000000   0.000000 )
               a(2) = (   0.000000  41.050143   0.000000 )
               a(3) = (   0.000000   0.000000  41.050143 )

     reciprocal axes: (cart. coord. in units 2 pi/alat)
               b(1) = (  0.024360  0.000000  0.000000 )
               b(2) = (  0.000000  0.024360  0.000000 )
               b(3) = (  0.000000  0.000000  0.024360 )

     PseudoPot. # 1 for Ge read from file:
     ./ge_lda_v1.uspp.F.UPF
     MD5 check sum: 575f587c0f86b3eee266efe92ef02c15
     Pseudo is Ultrasoft + core correction, Zval = 14.0
     Generated by new atomic code, or converted to UPF format
     Using radial grid of  873 points,  6 beta functions with:
                l(1) =   0
                l(2) =   0
                l(3) =   1
                l(4) =   1
                l(5) =   2
                l(6) =   2
     Q(r) pseudized with  8 coefficients,  rinner =    1.400   1.400   1.400
                                                       1.400   1.400

     PseudoPot. # 2 for Si read from file:
     ./si_lda_v1.uspp.F.UPF
     MD5 check sum: ca10e49b2835512e91ee5100d37237e0
     Pseudo is Ultrasoft + core correction, Zval =  4.0
     Generated by new atomic code, or converted to UPF format
     Using radial grid of  899 points,  6 beta functions with:
                l(1) =   0
                l(2) =   0
                l(3) =   1
                l(4) =   1
                l(5) =   2
                l(6) =   2
     Q(r) pseudized with  8 coefficients,  rinner =    0.900   0.900   0.900
                                                       0.900   0.900

     atomic species   valence    mass     pseudopotential
        Ge            14.00    72.61000     Ge( 1.00)
        Si             4.00    28.08550     Si( 1.00)

     24 Sym. Ops. (no inversion) found

   Cartesian axes

     site n.     atom                  positions (alat units)
         1           Ge  tau(   1) = (   0.0000000   0.0000000   0.0000000  )
         2           Si  tau(   2) = (  20.5250715  20.5250715  20.5250715  )
         3           Si  tau(   3) = (  20.5250715  20.5250715  30.7876073  )
         4           Si  tau(   4) = (  20.5250715  20.5250715   0.0000000  )
         5           Si  tau(   5) = (  20.5250715  20.5250715  10.2625357  )
         6           Si  tau(   6) = (  20.5250715  30.7876073  20.5250715  )
         7           Si  tau(   7) = (  20.5250715  30.7876073  30.7876073  )
         8           Si  tau(   8) = (  20.5250715  30.7876073   0.0000000  )
         9           Si  tau(   9) = (  20.5250715  30.7876073  10.2625357  )
        10           Si  tau(  10) = (  20.5250715   0.0000000  20.5250715  )
        11           Si  tau(  11) = (  20.5250715   0.0000000  30.7876073  )
        12           Si  tau(  12) = (  20.5250715   0.0000000   0.0000000  )
        13           Si  tau(  13) = (  20.5250715   0.0000000  10.2625357  )
        14           Si  tau(  14) = (  20.5250715  10.2625357  20.5250715  )
        15           Si  tau(  15) = (  20.5250715  10.2625357  30.7876073  )
        16           Si  tau(  16) = (  20.5250715  10.2625357   0.0000000  )
        17           Si  tau(  17) = (  20.5250715  10.2625357  10.2625357  )
        18           Si  tau(  18) = (  30.7876073  20.5250715  20.5250715  )
        19           Si  tau(  19) = (  30.7876073  20.5250715  30.7876073  )
        20           Si  tau(  20) = (  30.7876073  20.5250715   0.0000000  )
        21           Si  tau(  21) = (  30.7876073  20.5250715  10.2625357  )
        22           Si  tau(  22) = (  30.7876073  30.7876073  20.5250715  )
        23           Si  tau(  23) = (  30.7876073  30.7876073  30.7876073  )
        24           Si  tau(  24) = (  30.7876073  30.7876073   0.0000000  )
        25           Si  tau(  25) = (  30.7876073  30.7876073  10.2625357  )
        26           Si  tau(  26) = (  30.7876073   0.0000000  20.5250715  )
        27           Si  tau(  27) = (  30.7876073   0.0000000  30.7876073  )
        28           Si  tau(  28) = (  30.7876073   0.0000000   0.0000000  )
        29           Si  tau(  29) = (  30.7876073   0.0000000  10.2625357  )
        30           Si  tau(  30) = (  30.7876073  10.2625357  20.5250715  )
        31           Si  tau(  31) = (  30.7876073  10.2625357  30.7876073  )
        32           Si  tau(  32) = (  30.7876073  10.2625357   0.0000000  )
        33           Si  tau(  33) = (  30.7876073  10.2625357  10.2625357  )
        34           Si  tau(  34) = (   0.0000000  20.5250715  20.5250715  )
        35           Si  tau(  35) = (   0.0000000  20.5250715  30.7876073  )
        36           Si  tau(  36) = (   0.0000000  20.5250715   0.0000000  )
        37           Si  tau(  37) = (   0.0000000  20.5250715  10.2625357  )
        38           Si  tau(  38) = (   0.0000000  30.7876073  20.5250715  )
        39           Si  tau(  39) = (   0.0000000  30.7876073  30.7876073  )
        40           Si  tau(  40) = (   0.0000000  30.7876073   0.0000000  )
        41           Si  tau(  41) = (   0.0000000  30.7876073  10.2625357  )
        42           Si  tau(  42) = (   0.0000000   0.0000000  20.5250715  )
        43           Si  tau(  43) = (   0.0000000   0.0000000  30.7876073  )
        44           Si  tau(  44) = (   0.0000000   0.0000000  10.2625357  )
        45           Si  tau(  45) = (   0.0000000  10.2625357  20.5250715  )
        46           Si  tau(  46) = (   0.0000000  10.2625357  30.7876073  )
        47           Si  tau(  47) = (   0.0000000  10.2625357   0.0000000  )
        48           Si  tau(  48) = (   0.0000000  10.2625357  10.2625357  )
        49           Si  tau(  49) = (  10.2625357  20.5250715  20.5250715  )
        50           Si  tau(  50) = (  10.2625357  20.5250715  30.7876073  )
        51           Si  tau(  51) = (  10.2625357  20.5250715   0.0000000  )
        52           Si  tau(  52) = (  10.2625357  20.5250715  10.2625357  )
        53           Si  tau(  53) = (  10.2625357  30.7876073  20.5250715  )
        54           Si  tau(  54) = (  10.2625357  30.7876073  30.7876073  )
        55           Si  tau(  55) = (  10.2625357  30.7876073   0.0000000  )
        56           Si  tau(  56) = (  10.2625357  30.7876073  10.2625357  )
        57           Si  tau(  57) = (  10.2625357   0.0000000  20.5250715  )
        58           Si  tau(  58) = (  10.2625357   0.0000000  30.7876073  )
        59           Si  tau(  59) = (  10.2625357   0.0000000   0.0000000  )
        60           Si  tau(  60) = (  10.2625357   0.0000000  10.2625357  )
[...]
       498           Si  tau( 498) = (  12.8281697  23.0907054  33.3532412  )
       499           Si  tau( 499) = (  12.8281697  23.0907054   2.5656339  )
       500           Si  tau( 500) = (  12.8281697  23.0907054  12.8281697  )
       501           Si  tau( 501) = (  12.8281697  33.3532412  23.0907054  )
       502           Si  tau( 502) = (  12.8281697  33.3532412  33.3532412  )
       503           Si  tau( 503) = (  12.8281697  33.3532412   2.5656339  )
       504           Si  tau( 504) = (  12.8281697  33.3532412  12.8281697  )
       505           Si  tau( 505) = (  12.8281697   2.5656339  23.0907054  )
       506           Si  tau( 506) = (  12.8281697   2.5656339  33.3532412  )
       507           Si  tau( 507) = (  12.8281697   2.5656339   2.5656339  )
       508           Si  tau( 508) = (  12.8281697   2.5656339  12.8281697  )
       509           Si  tau( 509) = (  12.8281697  12.8281697  23.0907054  )
       510           Si  tau( 510) = (  12.8281697  12.8281697  33.3532412  )
       511           Si  tau( 511) = (  12.8281697  12.8281697   2.5656339  )
       512           Si  tau( 512) = (  12.8281697  12.8281697  12.8281697  )

     number of k points=     1  Gaussian smearing, width (Ry)=  0.0010
                       cart. coord. in units 2pi/alat
        k(    1) = (   0.0000000   0.0000000   0.0000000), wk =   2.0000000

     Initial potential from superposition of free atoms

     Self-consistent Calculation

     iteration #  1     ecut=    40.00 Ry     beta= 0.70

     Threshold (ethr) on eigenvalues was too large:
     Diagonalizing with lowered threshold

     total energy              =   -5126.82650449 Ry
     estimated scf accuracy    <      14.53670836 Ry

     Band energy sum           =      64.99725985 Ry

[...]

     total energy              =   -5128.14960992 Ry
     estimated scf accuracy    <          2.9E-10 Ry

[...]

     iteration # 20     ecut=    40.00 Ry     beta= 0.70

     End of self-consistent calculation

          k = 0.0000 0.0000 0.0000 (147954 PWs)   bands (ev):

   -18.3118 -18.3118 -18.3118 -18.2816 -18.2816  -5.9524  -5.7031  -5.6750
    -5.6750  -5.6750  -5.6749  -5.6749  -5.4554  -5.4078  -5.4078  -5.4078
    -5.4075  -5.4075  -5.4075  -5.4075  -5.4075  -5.4075  -5.4075  -5.4075
    -5.1772  -5.1482  -5.1482  -5.1482  -5.1480  -5.1479  -5.1479  -5.1479
    -4.8936  -4.8663  -4.8663  -4.8663  -4.8661  -4.8661  -4.7049  -4.6194
    -4.6194  -4.6194  -4.6184  -4.6184  -4.6184  -4.6184  -4.6184  -4.6184
    -4.6184  -4.6184  -4.6183  -4.6183  -4.6183  -4.6183  -4.6183  -4.6183
    -4.6183  -4.6183  -4.6183  -4.6182  -4.6182  -4.6182  -4.4473  -4.3916
    -4.3916  -4.3916  -4.3906  -4.3906  -4.3906  -4.3906  -4.3906  -4.3906
    -4.3906  -4.3906  -4.3906  -4.3905  -4.3905  -4.3905  -4.3905  -4.3905
    -4.3905  -4.3905  -4.3905  -4.3905  -4.3905  -4.3905  -3.9577  -3.9036
[...]
 | | |- sirius::Non_local_operator                                       2      20.76 us       0.00       0.39      10.38 us       5.38 us      15.38 us
 | | |- sirius::D_operator::initialize                                   1     381.34 us       0.00       7.08     381.34 us     381.34 us     381.34 us
 | | |- sirius::Q_operator::initialize                                   1     183.59 us       0.00       3.41     183.59 us     183.59 us     183.59 us
 | |
 | |- sirius::Band::initialize_subspace                                  1        4.84 s       1.73      31.96        4.84 s        4.84 s        4.84 s
 | | |- sirius::Hamiltonian_k                                            1      16.87 us       0.00       0.00      16.87 us      16.87 us      16.87 us
 | | | |- sirius::Local_operator::prepare_k                              1      15.12 us       0.00      89.61      15.12 us      15.12 us      15.12 us
 | | |- sirius::Band::initialize_subspace|kp                             1        4.84 s       1.73     100.00        4.84 s        4.84 s        4.84 s
 | | | |- sddk::matrix_storage::matrix_storage                           4       9.32 us       0.00       0.00       2.35 us     748.00 ns       3.88 us
 | | | |- sirius::Band::initialize_subspace|kp|wf                        1      28.84 ms       0.01       0.60      28.84 ms      28.84 ms      28.84 ms
 | | | | |- sirius::K_point::generate_atomic_wave_functions              1      22.92 ms       0.01      79.47      22.92 ms      22.92 ms      22.92 ms
 | | | |- sirius::Hamiltonian_k::apply_h_s                               1        3.73 s       1.34      77.03        3.73 s        3.73 s        3.73 s
 | | | | |- sirius::Local_operator::apply_h                              1        1.76 s       0.63      47.20        1.76 s        1.76 s        1.76 s
 | | | | | |- sddk::matrix_storage::remap_forward                        1       7.14 us       0.00       0.00       7.14 us       7.14 us       7.14 us
 | | | | | | |- sddk::matrix_storage::set_num_extra                      1       5.13 us       0.00      71.81       5.13 us       5.13 us       5.13 us
 | | | | | |- sddk::matrix_storage::set_num_extra                        1     706.00 ns       0.00       0.00     706.00 ns     706.00 ns     706.00 ns
 | | | | | |- sddk::matrix_storage::remap_backward                       1      16.02 us       0.00       0.00      16.02 us      16.02 us      16.02 us
 | | | | |- sirius::Beta_projectors_base::inner                          2     943.98 ms       0.34      25.30     471.99 ms     444.61 ms     499.37 ms
 | | | | | |- sirius::Beta_projectors_base::inner|comm                   2     464.32 ms       0.17      49.19     232.16 ms     206.85 ms     257.47 ms
 | | | | |- sirius::Non_local_operator::apply                            4        1.02 s       0.36      27.34     254.72 ms     254.36 ms     256.07 ms
 | | | |- sirius::Band::set_subspace_mtrx                                2     355.93 ms       0.13       7.35     177.97 ms     145.65 ms     210.28 ms
 | | | | |- sddk::inner                                                  2     355.79 ms       0.13      99.96     177.89 ms     145.58 ms     210.21 ms
 | | | | | |- sddk::inner|local                                         18     197.88 ms       0.07      55.62       1.22 ms      32.53 us      24.23 ms
 | | | | | |- sddk::inner|store                                         18     157.60 ms       0.06      44.30       1.35 ms       1.01 us      60.94 ms
 | | | |- Eigensolver_scalapack|pdsygvx                                  1     544.76 ms       0.19      11.25     544.76 ms     544.76 ms     544.76 ms
 | | | |- sddk::transform                                                1     174.44 ms       0.06       3.60     174.44 ms     174.44 ms     174.44 ms
 | | | | |- sddk::transform|init                                         1      17.21 ms       0.01       9.87      17.21 ms      17.21 ms      17.21 ms
 | | | | |- sddk::transform|local                                        2      56.76 ms       0.02      32.54      28.38 ms       1.70 ms      55.06 ms
 |
 |- qe|electrons                                                         1      259.74 s      92.95      92.95      259.74 s      259.74 s      259.74 s
 | |- sirius::Hamiltonian0                                              21      49.58 ms       0.02       0.02       2.08 ms       2.00 ms       4.86 ms
 | | |- sirius::Local_operator                                          21      28.88 ms       0.01      58.25       1.08 ms       1.04 ms       3.89 ms
 | | | |- sirius::Smooth_periodic_function                              21       1.62 ms       0.00       5.62      70.82 us      69.20 us     141.94 us
 | | | |- sirius::Smooth_periodic_function::fft_transform               21      25.59 ms       0.01      88.61     928.44 us     867.14 us       3.75 ms
 | | |- sirius::Non_local_operator                                      42     288.67 us       0.00       0.58       7.34 us       4.62 us      16.37 us
 | | |- sirius::D_operator::initialize                                  21       6.56 ms       0.00      13.23     303.72 us     296.52 us     361.41 us
 | | |- sirius::Q_operator::initialize                                  21       4.10 ms       0.00       8.27     185.80 us     182.90 us     276.13 us
 | |
 | |- sirius::Band::solve                                               21      187.32 s      67.03      72.12        8.01 s        2.69 s       25.63 s
 | | |- sirius::Hamiltonian_k                                           21     304.86 us       0.00       0.00      14.07 us      12.44 us      25.97 us
 | | | |- sirius::Local_operator::prepare_k                             21     266.24 us       0.00      87.33      12.83 us      11.52 us      13.55 us
 | | |- sirius::Band::diag_pseudo_potential_davidson                    21      187.32 s      67.03     100.00        8.01 s        2.69 s       25.63 s
 | | | |- sirius::Band::diag_pseudo_potential_davidson|alloc            21     376.16 us       0.00       0.00      18.40 us      14.91 us      22.72 us
 | | | | |- sddk::matrix_storage::matrix_storage                       126     114.98 us       0.00      30.57     784.50 ns     459.00 ns       2.55 us
 | | | |- sirius::Hamiltonian_k::get_h_o_diag                           21     147.43 ms       0.05       0.08       7.01 ms       6.93 ms       7.16 ms
 | | | |- sirius::Band::diag_pseudo_potential_davidson|iter             21      187.17 s      66.98      99.92        8.00 s        2.68 s       25.62 s
 | | | | |- sirius::Hamiltonian_k::apply_h_s                           100       93.59 s      33.49      50.00     605.03 ms      23.11 ms        2.07 s
 | | | | | |- sirius::Local_operator::apply_h                          100       48.01 s      17.18      51.30     271.81 ms     989.09 us        1.09 s
 | | | | | | |- sddk::matrix_storage::remap_forward                    100     315.63 us       0.00       0.00       2.56 us       1.79 us      13.32 us
 | | | | | | | |- sddk::matrix_storage::set_num_extra                  100     278.47 us       0.00      88.23       2.23 us       1.51 us      13.04 us
 | | | | | | |- sddk::matrix_storage::set_num_extra                    100      69.17 us       0.00       0.00     682.00 ns     397.00 ns       1.29 us
 | | | | | | |- sddk::matrix_storage::remap_backward                   100      42.66 us       0.00       0.00     409.50 ns     181.00 ns     762.00 ns
 | | | | | |- sirius::Beta_projectors_base::inner                      200       20.19 s       7.22      21.57      59.60 ms       3.76 ms     277.14 ms
 | | | | | | |- sirius::Beta_projectors_base::inner|comm               200        8.44 s       3.02      41.82      18.65 ms     166.16 us     155.58 ms
 | | | | | |- sirius::Non_local_operator::apply                        400       25.20 s       9.02      26.93      52.69 ms       3.57 ms     132.46 ms
 | | | | |- sddk::orthogonalize                                        100       21.80 s       7.80      11.65     162.24 ms       7.04 ms     747.19 ms
 | | | | | |- sddk::inner                                              179        5.62 s       2.01      25.77      14.54 ms      75.67 us     171.06 ms
 | | | | | | |- sddk::inner|local                                      493        2.91 s       1.04      51.76       2.65 ms      10.82 us      27.39 ms
 | | | | | | |- sddk::inner|store                                      493        2.70 s       0.97      48.13     755.06 us     413.00 ns      86.75 ms
 | | | | | |- sddk::orthogonalize|potrf                                100     383.46 ms       0.14       1.76       1.97 ms     107.02 us      32.82 ms
 | | | | | |- sddk::orthogonalize|trtri                                100     333.19 ms       0.12       1.53     880.61 us      89.46 us      19.45 ms
 | | | | | |- sddk::transform                                          379       14.24 s       5.10      65.33      15.58 ms      49.69 us     281.06 ms
 | | | | | | |- sddk::transform|init                                   379     865.91 ms       0.31       6.08     775.43 us     840.00 ns      11.70 ms
 | | | | | | |- sddk::transform|local                                  741        8.15 s       2.91      57.18       3.68 ms       2.05 us      52.91 ms
 | | | | |- sirius::Band::set_subspace_mtrx                            100        4.34 s       1.55       2.32      34.34 ms       1.24 ms     158.93 ms
 | | | | | |- sddk::inner                                              100        4.31 s       1.54      99.43      34.03 ms       1.17 ms     158.43 ms
 | | | | | | |- sddk::inner|local                                      408        2.91 s       1.04      67.45       4.15 ms     134.89 us      27.18 ms
 | | | | | | |- sddk::inner|store                                      408        1.40 s       0.50      32.45     534.71 us     399.00 ns      27.87 ms
 | | | | |- sirius::Band::diag_pseudo_potential_davidson|evp           100       57.78 s      20.68      30.87     494.54 ms     198.70 ms        1.96 s
 | | | | | |- Eigensolver_scalapack|pdsyevx                            100       57.78 s      20.68     100.00     494.54 ms     198.70 ms        1.96 s
 | | | | |- sirius::residuals                                          100        6.35 s       2.27       3.39      47.60 ms      12.51 us     238.46 ms
 | | | | | |- sddk::transform                                           84        5.71 s       2.04      89.85      55.94 ms       4.54 ms     223.40 ms
 | | | | | | |- sddk::transform|init                                    84     323.92 ms       0.12       5.68       2.34 ms       6.73 us      10.08 ms
 | | | | | | |- sddk::transform|local                                  306        3.45 s       1.24      60.49       5.51 ms     161.14 us      52.80 ms
 | | | | | |- sirius::normalized_preconditioned_residuals               84     621.62 ms       0.22       9.79       4.20 ms     205.35 us      21.05 ms
 | | | | |- sirius::Band::diag_pseudo_potential_davidson|update_phi     21        3.13 s       1.12       1.67     155.25 ms      65.74 ms     263.07 ms
 | | | | | |- sddk::transform                                           21        3.13 s       1.12      99.99     155.24 ms      65.73 ms     263.06 ms
 | | | | | | |- sddk::transform|init                                    21     105.06 ms       0.04       3.36       4.99 ms       4.95 ms       5.16 ms
 | | | | | | |- sddk::transform|local                                   38        1.52 s       0.54      48.45      45.92 ms      12.22 ms      56.04 ms
 | | |- sirius::K_point_set::sync_band_energies                         21     383.27 us       0.00       0.00      17.36 us      16.18 us      26.17 us
 | |
 | |- qe|sum_band                                                       21       35.57 s      12.73      13.69        1.68 s        1.66 s        1.78 s
 | | |- sirius::Density::generate                                       21       26.55 s       9.50      74.64        1.26 s        1.24 s        1.32 s
 | | | |- sirius::Density::generate_valence                             21       26.55 s       9.50     100.00        1.26 s        1.24 s        1.32 s
 | | | | |- sddk::matrix_storage::remap_forward                         21     134.59 us       0.00       0.00       4.99 us       3.35 us      21.42 us
 | | | | | |- sddk::matrix_storage::set_num_extra                       21     126.25 us       0.00      93.80       4.51 us       3.04 us      21.09 us
 | | | | |- sirius::Density::add_k_point_contribution_dm                21        7.47 s       2.67      28.13     352.64 ms     347.31 ms     409.26 ms
 | | | | | |- sirius::Beta_projectors_base::inner                       42        7.46 s       2.67      99.83     176.00 ms     167.47 ms     240.35 ms
 | | | | | | |- sirius::Beta_projectors_base::inner|comm                42        3.10 s       1.11      41.51      72.02 ms      63.50 ms     137.68 ms
 | | | | |- sirius::Density::add_k_point_contribution_rg                21       10.35 s       3.70      38.98     489.04 ms     478.15 ms     538.82 ms
 | | | | |- sirius::Smooth_periodic_function::fft_transform             21      16.08 ms       0.01       0.06     749.29 us     686.77 us       1.04 ms
 | | | | |- sirius::Density::augment                                    21        8.57 s       3.07      32.28     408.36 ms     404.28 ms     410.23 ms
 | | | | | |- sirius::Density::generate_rho_aug                         21        8.57 s       3.07      99.99     408.30 ms     404.22 ms     410.17 ms
 | | | | | | |- sirius::Density::generate_rho_aug|gemm                  42        3.01 s       1.08      35.11      71.09 ms      17.01 ms     127.12 ms
 | | | | | | |- sirius::Density::generate_rho_aug|sum                   42        1.30 s       0.47      15.20      30.96 ms      30.64 ms      31.33 ms
 | | |- sirius_api::sirius_get_pw_coeffs                                21        6.55 s       2.34      18.41     304.44 ms     294.59 ms     352.94 ms
 | | | |- sirius::Smooth_periodic_function::gather_f_pw                 21        6.44 s       2.30      98.28     299.12 ms     289.28 ms     347.76 ms
 | | |- qe|sym_rho                                                      21      45.07 us       0.00       0.00       2.00 us       1.80 us       5.77 us
 | |
 | |- qe|mix                                                            21     525.33 ms       0.19       0.20      28.39 ms     232.13 us      29.28 ms
 | |- sirius_api::sirius_set_pw_coeffs                                  20       27.47 s       9.83      10.58        1.33 s        1.26 s        1.56 s
 | | |- sirius::Smooth_periodic_function::fft_transform                 20     152.57 ms       0.05       0.56       7.29 ms       6.89 ms      14.46 ms
 | |
 | |- qe|newd                                                           20        7.59 s       2.72       2.92     378.85 ms     377.57 ms     385.09 ms
 | | |- sirius::Potential::generate_D_operator_matrix                   20        7.55 s       2.70      99.49     376.90 ms     375.64 ms     383.17 ms
 |
 |- sirius_api::sirius_get_wave_functions                                1        2.47 s       0.88       0.88        2.47 s        2.47 s        2.47 s
 | |- sddk::matrix_storage::matrix_storage                               1      20.10 us       0.00       0.00      20.10 us      20.10 us      20.10 us
 |
 |- qe|ions                                                              1        1.29 s       0.46       0.46        1.29 s        1.29 s        1.29 s
 | |- sirius_api::sirius_set_pw_coeffs                                   1        1.29 s       0.46      99.88        1.29 s        1.29 s        1.29 s
 | | |- sirius::Smooth_periodic_function::fft_transform                  1       7.31 ms       0.00       0.57       7.31 ms       7.31 ms       7.31 ms
 |
 |- qe|punch                                                             1     855.00 ns       0.00       0.00     855.00 ns     855.00 ns     855.00 ns
 |- sirius::finalize                                                     1      17.88 us       0.00       0.00      17.88 us      17.88 us      17.88 us

Batch Job Summary Report for Job "test_scf" (20933727) on daint
2020-03-10T14:24:38 2020-03-10T14:24:38 2020-03-10T14:25:48 2020-03-10T14:31:33   00:05:45   00:20:00
Username    Account     Partition   NNodes   Energy
antonk      csstaff     normal          25        0 joules

This job did not utilize any GPUs

Scratch File System        Files       Quota
/scratch/snx3000            2642     1000000