     Program PWSCF v.6.5 starts on 10Mar2020 at 14:12:22

     R & G space division:  proc/nbgrp/npool/nimage =      64
     Reading input from pw.in
     Message from routine read_cards :
     DEPRECATED: no units specified in CELL_PARAMETERS card
Warning: card 1 1 1  0 0 0 ignored

     Current dimensions of program PWSCF are:
     Max number of different atomic species (ntypx) = 10
     Max number of k-points (npk) =  40000
     Max angular momentum in pseudopotentials (lmaxx) =  3
     Message from routine cell_base_init:
     DEPRECATED: use true lattice parameter, not A to a.u. conversion factor

     gamma-point specific algorithms are used

     Message from routine setup:
     using ibrav=0 with symmetry is DISCOURAGED, use correct ibrav instead

     bravais-lattice index     =            0
     lattice parameter (alat)  =       1.0000  a.u.
     unit-cell volume          =   69174.1805 (a.u.)^3
     number of atoms/cell      =          512
     number of atomic types    =            2
     number of electrons       =      2058.00
     number of Kohn-Sham states=         1235
     kinetic-energy cutoff     =      40.0000  Ry
     charge density cutoff     =     600.0000  Ry
     convergence threshold     =      1.0E-10
     mixing beta               =       0.7000
     number of iterations used =            8  plain     mixing
     Exchange-correlation= SLA  PZ   NOGX NOGC
                           (   1   1   0   0   0   0   0)

     celldm(1)=   1.000000  celldm(2)=   0.000000  celldm(3)=   0.000000
     celldm(4)=   0.000000  celldm(5)=   0.000000  celldm(6)=   0.000000

     crystal axes: (cart. coord. in units of alat)
               a(1) = (  41.050143   0.000000   0.000000 )
               a(2) = (   0.000000  41.050143   0.000000 )
               a(3) = (   0.000000   0.000000  41.050143 )

     reciprocal axes: (cart. coord. in units 2 pi/alat)
               b(1) = (  0.024360  0.000000  0.000000 )
               b(2) = (  0.000000  0.024360  0.000000 )
               b(3) = (  0.000000  0.000000  0.024360 )

     PseudoPot. # 1 for Ge read from file:
     ./ge_lda_v1.uspp.F.UPF
     MD5 check sum: 575f587c0f86b3eee266efe92ef02c15
     Pseudo is Ultrasoft + core correction, Zval = 14.0
     Generated by new atomic code, or converted to UPF format
     Using radial grid of  873 points,  6 beta functions with:
                l(1) =   0
                l(2) =   0
                l(3) =   1
                l(4) =   1
                l(5) =   2
                l(6) =   2
     Q(r) pseudized with  8 coefficients,  rinner =    1.400   1.400   1.400
                                                       1.400   1.400

     PseudoPot. # 2 for Si read from file:
     ./si_lda_v1.uspp.F.UPF
     MD5 check sum: ca10e49b2835512e91ee5100d37237e0
     Pseudo is Ultrasoft + core correction, Zval =  4.0
     Generated by new atomic code, or converted to UPF format
     Using radial grid of  899 points,  6 beta functions with:
                l(1) =   0
                l(2) =   0
                l(3) =   1
                l(4) =   1
                l(5) =   2
                l(6) =   2
     Q(r) pseudized with  8 coefficients,  rinner =    0.900   0.900   0.900
                                                       0.900   0.900

     atomic species   valence    mass     pseudopotential
        Ge            14.00    72.61000     Ge( 1.00)
        Si             4.00    28.08550     Si( 1.00)

     24 Sym. Ops. (no inversion) found

   Cartesian axes

     site n.     atom                  positions (alat units)
         1           Ge  tau(   1) = (   0.0000000   0.0000000   0.0000000  )
         2           Si  tau(   2) = (  20.5250715  20.5250715  20.5250715  )
         3           Si  tau(   3) = (  20.5250715  20.5250715  30.7876073  )
         4           Si  tau(   4) = (  20.5250715  20.5250715   0.0000000  )
         5           Si  tau(   5) = (  20.5250715  20.5250715  10.2625357  )
         6           Si  tau(   6) = (  20.5250715  30.7876073  20.5250715  )
         7           Si  tau(   7) = (  20.5250715  30.7876073  30.7876073  )
         8           Si  tau(   8) = (  20.5250715  30.7876073   0.0000000  )
         9           Si  tau(   9) = (  20.5250715  30.7876073  10.2625357  )
        10           Si  tau(  10) = (  20.5250715   0.0000000  20.5250715  )
        11           Si  tau(  11) = (  20.5250715   0.0000000  30.7876073  )
        12           Si  tau(  12) = (  20.5250715   0.0000000   0.0000000  )
        13           Si  tau(  13) = (  20.5250715   0.0000000  10.2625357  )
        14           Si  tau(  14) = (  20.5250715  10.2625357  20.5250715  )
        15           Si  tau(  15) = (  20.5250715  10.2625357  30.7876073  )
        16           Si  tau(  16) = (  20.5250715  10.2625357   0.0000000  )
        17           Si  tau(  17) = (  20.5250715  10.2625357  10.2625357  )
        18           Si  tau(  18) = (  30.7876073  20.5250715  20.5250715  )
        19           Si  tau(  19) = (  30.7876073  20.5250715  30.7876073  )
        20           Si  tau(  20) = (  30.7876073  20.5250715   0.0000000  )
        21           Si  tau(  21) = (  30.7876073  20.5250715  10.2625357  )
        22           Si  tau(  22) = (  30.7876073  30.7876073  20.5250715  )
        23           Si  tau(  23) = (  30.7876073  30.7876073  30.7876073  )
        24           Si  tau(  24) = (  30.7876073  30.7876073   0.0000000  )
        25           Si  tau(  25) = (  30.7876073  30.7876073  10.2625357  )
        26           Si  tau(  26) = (  30.7876073   0.0000000  20.5250715  )
        27           Si  tau(  27) = (  30.7876073   0.0000000  30.7876073  )
        28           Si  tau(  28) = (  30.7876073   0.0000000   0.0000000  )
        29           Si  tau(  29) = (  30.7876073   0.0000000  10.2625357  )
        30           Si  tau(  30) = (  30.7876073  10.2625357  20.5250715  )
        31           Si  tau(  31) = (  30.7876073  10.2625357  30.7876073  )
        32           Si  tau(  32) = (  30.7876073  10.2625357   0.0000000  )
        33           Si  tau(  33) = (  30.7876073  10.2625357  10.2625357  )
        34           Si  tau(  34) = (   0.0000000  20.5250715  20.5250715  )
        35           Si  tau(  35) = (   0.0000000  20.5250715  30.7876073  )
        36           Si  tau(  36) = (   0.0000000  20.5250715   0.0000000  )
        37           Si  tau(  37) = (   0.0000000  20.5250715  10.2625357  )
        38           Si  tau(  38) = (   0.0000000  30.7876073  20.5250715  )
        39           Si  tau(  39) = (   0.0000000  30.7876073  30.7876073  )
        40           Si  tau(  40) = (   0.0000000  30.7876073   0.0000000  )
        41           Si  tau(  41) = (   0.0000000  30.7876073  10.2625357  )
        42           Si  tau(  42) = (   0.0000000   0.0000000  20.5250715  )
        43           Si  tau(  43) = (   0.0000000   0.0000000  30.7876073  )
        44           Si  tau(  44) = (   0.0000000   0.0000000  10.2625357  )
        45           Si  tau(  45) = (   0.0000000  10.2625357  20.5250715  )
        46           Si  tau(  46) = (   0.0000000  10.2625357  30.7876073  )
        47           Si  tau(  47) = (   0.0000000  10.2625357   0.0000000  )
        48           Si  tau(  48) = (   0.0000000  10.2625357  10.2625357  )
        49           Si  tau(  49) = (  10.2625357  20.5250715  20.5250715  )
        50           Si  tau(  50) = (  10.2625357  20.5250715  30.7876073  )
        51           Si  tau(  51) = (  10.2625357  20.5250715   0.0000000  )
        52           Si  tau(  52) = (  10.2625357  20.5250715  10.2625357  )
        53           Si  tau(  53) = (  10.2625357  30.7876073  20.5250715  )
        54           Si  tau(  54) = (  10.2625357  30.7876073  30.7876073  )
        55           Si  tau(  55) = (  10.2625357  30.7876073   0.0000000  )
        56           Si  tau(  56) = (  10.2625357  30.7876073  10.2625357  )
        57           Si  tau(  57) = (  10.2625357   0.0000000  20.5250715  )
        58           Si  tau(  58) = (  10.2625357   0.0000000  30.7876073  )
        59           Si  tau(  59) = (  10.2625357   0.0000000   0.0000000  )
        60           Si  tau(  60) = (  10.2625357   0.0000000  10.2625357  )
[...]
       498           Si  tau( 498) = (  12.8281697  23.0907054  33.3532412  )
       499           Si  tau( 499) = (  12.8281697  23.0907054   2.5656339  )
       500           Si  tau( 500) = (  12.8281697  23.0907054  12.8281697  )
       501           Si  tau( 501) = (  12.8281697  33.3532412  23.0907054  )
       502           Si  tau( 502) = (  12.8281697  33.3532412  33.3532412  )
       503           Si  tau( 503) = (  12.8281697  33.3532412   2.5656339  )
       504           Si  tau( 504) = (  12.8281697  33.3532412  12.8281697  )
       505           Si  tau( 505) = (  12.8281697   2.5656339  23.0907054  )
       506           Si  tau( 506) = (  12.8281697   2.5656339  33.3532412  )
       507           Si  tau( 507) = (  12.8281697   2.5656339   2.5656339  )
       508           Si  tau( 508) = (  12.8281697   2.5656339  12.8281697  )
       509           Si  tau( 509) = (  12.8281697  12.8281697  23.0907054  )
       510           Si  tau( 510) = (  12.8281697  12.8281697  33.3532412  )
       511           Si  tau( 511) = (  12.8281697  12.8281697   2.5656339  )
       512           Si  tau( 512) = (  12.8281697  12.8281697  12.8281697  )

     number of k points=     1  Gaussian smearing, width (Ry)=  0.0010
                       cart. coord. in units 2pi/alat
        k(    1) = (   0.0000000   0.0000000   0.0000000), wk =   2.0000000

     Initial potential from superposition of free atoms

     Self-consistent Calculation

     iteration #  1     ecut=    40.00 Ry     beta= 0.70

     Threshold (ethr) on eigenvalues was too large:
     Diagonalizing with lowered threshold

     total energy              =   -5126.82650022 Ry
     estimated scf accuracy    <      14.53670607 Ry

     Band energy sum           =      64.99726592 Ry

[...]

     total energy              =   -5128.14960992 Ry
     estimated scf accuracy    <          2.3E-10 Ry

[...]

     iteration # 20     ecut=    40.00 Ry     beta= 0.70

     End of self-consistent calculation

          k = 0.0000 0.0000 0.0000 (147954 PWs)   bands (ev):

   -18.3118 -18.3118 -18.3118 -18.2816 -18.2816  -5.9524  -5.7031  -5.6750
    -5.6750  -5.6750  -5.6749  -5.6749  -5.4554  -5.4078  -5.4078  -5.4078
    -5.4075  -5.4075  -5.4075  -5.4075  -5.4075  -5.4075  -5.4075  -5.4075
    -5.1772  -5.1482  -5.1482  -5.1482  -5.1480  -5.1479  -5.1479  -5.1479
    -4.8936  -4.8663  -4.8663  -4.8663  -4.8661  -4.8661  -4.7049  -4.6194
    -4.6194  -4.6194  -4.6184  -4.6184  -4.6184  -4.6184  -4.6184  -4.6184
    -4.6184  -4.6184  -4.6183  -4.6183  -4.6183  -4.6183  -4.6183  -4.6183
    -4.6183  -4.6183  -4.6183  -4.6182  -4.6182  -4.6182  -4.4473  -4.3916
    -4.3916  -4.3916  -4.3906  -4.3906  -4.3906  -4.3906  -4.3906  -4.3906
    -4.3906  -4.3906  -4.3906  -4.3905  -4.3905  -4.3905  -4.3905  -4.3905
    -4.3905  -4.3905  -4.3905  -4.3905  -4.3905  -4.3905  -3.9577  -3.9036
[...]
 | | |- sirius::Non_local_operator                                       2      18.42 us       0.00       0.39       9.21 us       4.95 us      13.47 us
 | | |- sirius::D_operator::initialize                                   1     383.95 us       0.00       8.17     383.95 us     383.95 us     383.95 us
 | | |- sirius::Q_operator::initialize                                   1     200.78 us       0.00       4.27     200.78 us     200.78 us     200.78 us
 | |
 | |- sirius::Band::initialize_subspace                                  1        5.73 s       1.73      33.48        5.73 s        5.73 s        5.73 s
 | | |- sirius::Hamiltonian_k                                            1      18.79 us       0.00       0.00      18.79 us      18.79 us      18.79 us
 | | | |- sirius::Local_operator::prepare_k                              1      17.30 us       0.00      92.06      17.30 us      17.30 us      17.30 us
 | | |- sirius::Band::initialize_subspace|kp                             1        5.73 s       1.73     100.00        5.73 s        5.73 s        5.73 s
 | | | |- sddk::matrix_storage::matrix_storage                           4      10.50 us       0.00       0.00       2.35 us     620.00 ns       5.19 us
 | | | |- sirius::Band::initialize_subspace|kp|wf                        1      42.71 ms       0.01       0.75      42.71 ms      42.71 ms      42.71 ms
 | | | | |- sirius::K_point::generate_atomic_wave_functions              1      33.48 ms       0.01      78.40      33.48 ms      33.48 ms      33.48 ms
 | | | |- sirius::Hamiltonian_k::apply_h_s                               1        4.45 s       1.35      77.70        4.45 s        4.45 s        4.45 s
 | | | | |- sirius::Local_operator::apply_h                              1        1.76 s       0.53      39.62        1.76 s        1.76 s        1.76 s
 | | | | | |- sddk::matrix_storage::remap_forward                        1       9.62 us       0.00       0.00       9.62 us       9.62 us       9.62 us
 | | | | | | |- sddk::matrix_storage::set_num_extra                      1       7.06 us       0.00      73.46       7.06 us       7.06 us       7.06 us
 | | | | | |- sddk::matrix_storage::set_num_extra                        1     447.00 ns       0.00       0.00     447.00 ns     447.00 ns     447.00 ns
 | | | | | |- sddk::matrix_storage::remap_backward                       1      27.08 us       0.00       0.00      27.08 us      27.08 us      27.08 us
 | | | | |- sirius::Beta_projectors_base::inner                          2        1.15 s       0.35      25.80     573.99 ms     568.08 ms     579.89 ms
 | | | | | |- sirius::Beta_projectors_base::inner|comm                   2     402.11 ms       0.12      35.03     201.06 ms     196.72 ms     205.39 ms
 | | | | |- sirius::Non_local_operator::apply                            4        1.53 s       0.46      34.36     382.77 ms     379.13 ms     383.91 ms
 | | | |- sirius::Band::set_subspace_mtrx                                2     490.92 ms       0.15       8.57     245.46 ms     189.33 ms     301.59 ms
 | | | | |- sddk::inner                                                  2     490.78 ms       0.15      99.97     245.39 ms     189.26 ms     301.51 ms
 | | | | | |- sddk::inner|local                                         18     309.88 ms       0.09      63.14       2.17 ms      45.96 us      39.15 ms
 | | | | | |- sddk::inner|store                                         18     180.56 ms       0.05      36.79       1.43 ms      17.34 us     124.33 ms
 | | | |- Eigensolver_scalapack|pdsygvx                                  1     516.76 ms       0.16       9.02     516.76 ms     516.76 ms     516.76 ms
 | | | |- sddk::transform                                                1     213.27 ms       0.06       3.72     213.27 ms     213.27 ms     213.27 ms
 | | | | |- sddk::transform|init                                         1      27.00 ms       0.01      12.66      27.00 ms      27.00 ms      27.00 ms
 | | | | |- sddk::transform|local                                        2      89.89 ms       0.03      42.15      44.94 ms       3.24 ms      86.65 ms
 |
 |- qe|electrons                                                         1      308.94 s      93.56      93.56      308.94 s      308.94 s      308.94 s
 | |- sirius::Hamiltonian0                                              21      52.84 ms       0.02       0.02       2.36 ms       2.27 ms       5.16 ms
 | | |- sirius::Local_operator                                          21      31.81 ms       0.01      60.21       1.36 ms       1.29 ms       4.16 ms
 | | | |- sirius::Smooth_periodic_function                              21       3.80 ms       0.00      11.93     176.49 us     171.72 us     209.00 us
 | | | |- sirius::Smooth_periodic_function::fft_transform               21      25.78 ms       0.01      81.03       1.07 ms       1.01 ms       3.83 ms
 | | |- sirius::Non_local_operator                                      42     342.45 us       0.00       0.65       9.20 us       4.76 us      14.63 us
 | | |- sirius::D_operator::initialize                                  21       6.88 ms       0.00      13.02     312.63 us     309.89 us     408.04 us
 | | |- sirius::Q_operator::initialize                                  21       4.15 ms       0.00       7.85     192.48 us     189.98 us     261.07 us
 | |
 | |- sirius::Band::solve                                               21      218.31 s      66.12      70.67        9.45 s        3.25 s       28.94 s
 | | |- sirius::Hamiltonian_k                                           21     379.60 us       0.00       0.00      17.21 us      16.13 us      37.59 us
 | | | |- sirius::Local_operator::prepare_k                             21     351.20 us       0.00      92.52      15.83 us      14.92 us      35.35 us
 | | |- sirius::Band::diag_pseudo_potential_davidson                    21      218.31 s      66.12     100.00        9.45 s        3.25 s       28.94 s
 | | | |- sirius::Band::diag_pseudo_potential_davidson|alloc            21     361.32 us       0.00       0.00      16.52 us      15.40 us      23.56 us
 | | | | |- sddk::matrix_storage::matrix_storage                       126     119.56 us       0.00      33.09     815.00 ns     389.00 ns       2.35 us
 | | | |- sirius::Hamiltonian_k::get_h_o_diag                           21     185.54 ms       0.06       0.08       8.83 ms       8.76 ms       8.95 ms
 | | | |- sirius::Band::diag_pseudo_potential_davidson|iter             21      218.12 s      66.06      99.91        9.44 s        3.24 s       28.94 s
 | | | | |- sirius::Hamiltonian_k::apply_h_s                           102      112.39 s      34.04      51.53     677.78 ms      35.10 ms        2.46 s
 | | | | | |- sirius::Local_operator::apply_h                          102       48.97 s      14.83      43.57     245.00 ms       1.10 ms        1.12 s
 | | | | | | |- sddk::matrix_storage::remap_forward                    102     328.29 us       0.00       0.00       2.54 us       1.89 us      19.24 us
 | | | | | | | |- sddk::matrix_storage::set_num_extra                  102     295.23 us       0.00      89.93       2.24 us       1.61 us      18.89 us
 | | | | | | |- sddk::matrix_storage::set_num_extra                    102      67.45 us       0.00       0.00     623.50 ns     439.00 ns       1.09 us
 | | | | | | |- sddk::matrix_storage::remap_backward                   102      46.80 us       0.00       0.00     459.00 ns     197.00 ns     887.00 ns
 | | | | | |- sirius::Beta_projectors_base::inner                      204       25.34 s       7.68      22.55      75.22 ms       5.66 ms     312.71 ms
 | | | | | | |- sirius::Beta_projectors_base::inner|comm               204        7.00 s       2.12      27.64      17.83 ms     142.72 us     120.83 ms
 | | | | | |- sirius::Non_local_operator::apply                        408       37.79 s      11.45      33.63      71.14 ms       5.52 ms     216.11 ms
 | | | | |- sddk::orthogonalize                                        102       28.45 s       8.62      13.04     212.58 ms       6.76 ms     933.17 ms
 | | | | | |- sddk::inner                                              183        7.34 s       2.22      25.82      15.70 ms      79.70 us     318.37 ms
 | | | | | | |- sddk::inner|local                                      499        4.49 s       1.36      61.20       4.15 ms      10.47 us      42.27 ms
 | | | | | | |- sddk::inner|store                                      499        2.84 s       0.86      38.67     519.88 us     679.00 ns     256.49 ms
 | | | | | |- sddk::orthogonalize|potrf                                102     293.48 ms       0.09       1.03       1.74 ms      80.06 us      12.75 ms
 | | | | | |- sddk::orthogonalize|trtri                                102     268.17 ms       0.08       0.94     557.80 us      52.91 us      26.00 ms
 | | | | | |- sddk::transform                                          387       18.99 s       5.75      66.74      19.05 ms      47.14 us     392.85 ms
 | | | | | | |- sddk::transform|init                                   387        1.44 s       0.43       7.56       1.38 ms       1.10 us      18.41 ms
 | | | | | | |- sddk::transform|local                                  753       12.69 s       3.84      66.83       5.39 ms       3.12 us      82.16 ms
 | | | | |- sirius::Band::set_subspace_mtrx                            102        5.71 s       1.73       2.62      42.09 ms       1.74 ms     206.17 ms
 | | | | | |- sddk::inner                                              102        5.68 s       1.72      99.40      41.72 ms       1.60 ms     205.46 ms
 | | | | | | |- sddk::inner|local                                      412        4.51 s       1.37      79.36       6.05 ms     221.95 us      42.31 ms
 | | | | | | |- sddk::inner|store                                      412        1.17 s       0.35      20.53     404.81 us     941.00 ns      23.47 ms
 | | | | |- sirius::Band::diag_pseudo_potential_davidson|evp           102       58.44 s      17.70      26.79     477.65 ms     186.39 ms        1.33 s
 | | | | | |- Eigensolver_scalapack|pdsyevx                            102       58.44 s      17.70     100.00     477.65 ms     186.39 ms        1.33 s
 | | | | |- sirius::residuals                                          102        8.88 s       2.69       4.07      62.88 ms      12.48 us     326.60 ms
 | | | | | |- sddk::transform                                           85        7.91 s       2.40      89.12      95.53 ms      10.01 ms     301.21 ms
 | | | | | | |- sddk::transform|init                                    85     538.59 ms       0.16       6.81       3.82 ms      14.03 us      15.84 ms
 | | | | | | |- sddk::transform|local                                  306        5.57 s       1.69      70.40       8.85 ms     217.48 us      82.30 ms
 | | | | | |- sirius::normalized_preconditioned_residuals               85     915.56 ms       0.28      10.31       6.26 ms     274.20 us      28.51 ms
 | | | | |- sirius::Band::diag_pseudo_potential_davidson|update_phi     21        3.98 s       1.20       1.82     196.44 ms      86.81 ms     335.99 ms
 | | | | | |- sddk::transform                                           21        3.98 s       1.20      99.99     196.43 ms      86.80 ms     335.98 ms
 | | | | | | |- sddk::transform|init                                    21     166.21 ms       0.05       4.18       7.87 ms       7.83 ms       8.59 ms
 | | | | | | |- sddk::transform|local                                   38        2.37 s       0.72      59.47      70.82 ms      17.55 ms      87.48 ms
 | | |- sirius::K_point_set::sync_band_energies                         21     441.59 us       0.00       0.00      18.57 us      16.15 us      34.02 us
 | |
 | |- qe|sum_band                                                       21       48.57 s      14.71      15.72        2.30 s        2.28 s        2.40 s
 | | |- sirius::Density::generate                                       21       34.83 s      10.55      71.72        1.66 s        1.63 s        1.70 s
 | | | |- sirius::Density::generate_valence                             21       34.83 s      10.55     100.00        1.66 s        1.63 s        1.70 s
 | | | | |- sddk::matrix_storage::remap_forward                         21     126.37 us       0.00       0.00       5.29 us       3.94 us      17.78 us
 | | | | | |- sddk::matrix_storage::set_num_extra                       21     116.78 us       0.00      92.42       4.84 us       3.60 us      17.32 us
 | | | | |- sirius::Density::add_k_point_contribution_dm                21        9.38 s       2.84      26.93     443.42 ms     430.37 ms     485.13 ms
 | | | | | |- sirius::Beta_projectors_base::inner                       42        9.37 s       2.84      99.83     218.10 ms     212.69 ms     269.57 ms
 | | | | | | |- sirius::Beta_projectors_base::inner|comm                42        2.54 s       0.77      27.08      56.81 ms      48.81 ms     110.20 ms
 | | | | |- sirius::Density::add_k_point_contribution_rg                21       11.10 s       3.36      31.87     526.40 ms     519.41 ms     542.94 ms
 | | | | |- sirius::Smooth_periodic_function::fft_transform             21      18.55 ms       0.01       0.05     838.42 us     786.55 us       1.09 ms
 | | | | |- sirius::Density::augment                                    21       14.20 s       4.30      40.77     677.53 ms     648.30 ms     678.91 ms
 | | | | | |- sirius::Density::generate_rho_aug                         21       14.20 s       4.30      99.99     677.45 ms     648.22 ms     678.82 ms
 | | | | | | |- sirius::Density::generate_rho_aug|gemm                  42        4.67 s       1.42      32.91     110.44 ms      27.07 ms     196.18 ms
 | | | | | | |- sirius::Density::generate_rho_aug|sum                   42        2.01 s       0.61      14.19      47.92 ms      47.17 ms      48.80 ms
 | | |- sirius_api::sirius_get_pw_coeffs                                21       11.95 s       3.62      24.61     554.45 ms     529.68 ms     636.03 ms
 | | | |- sirius::Smooth_periodic_function::gather_f_pw                 21       11.77 s       3.57      98.50     545.95 ms     521.18 ms     627.53 ms
 | | |- qe|sym_rho                                                      21      40.41 us       0.00       0.00       1.58 us       1.51 us       5.65 us
 | |
 | |- qe|mix                                                            21     715.32 ms       0.22       0.23      38.28 ms     320.91 us      39.97 ms
 | |- sirius_api::sirius_set_pw_coeffs                                  20       27.00 s       8.18       8.74        1.35 s        1.18 s        1.75 s
 | | |- sirius::Smooth_periodic_function::fft_transform                 20     123.53 ms       0.04       0.46       6.13 ms       5.86 ms       6.76 ms
 | |
 | |- qe|newd                                                           20       12.67 s       3.84       4.10     633.44 ms     628.57 ms     638.89 ms
 | | |- sirius::Potential::generate_D_operator_matrix                   20       12.63 s       3.83      99.70     631.53 ms     626.64 ms     636.98 ms
 |
 |- sirius_api::sirius_get_wave_functions                                1        2.24 s       0.68       0.68        2.24 s        2.24 s        2.24 s
 | |- sddk::matrix_storage::matrix_storage                               1      19.64 us       0.00       0.00      19.64 us      19.64 us      19.64 us
 |
 |- qe|ions                                                              1        1.22 s       0.37       0.37        1.22 s        1.22 s        1.22 s
 | |- sirius_api::sirius_set_pw_coeffs                                   1        1.22 s       0.37      99.84        1.22 s        1.22 s        1.22 s
 | | |- sirius::Smooth_periodic_function::fft_transform                  1       6.18 ms       0.00       0.51       6.18 ms       6.18 ms       6.18 ms
 |
 |- qe|punch                                                             1     658.00 ns       0.00       0.00     658.00 ns     658.00 ns     658.00 ns
 |- sirius::finalize                                                     1      27.45 us       0.00       0.00      27.45 us      27.45 us      27.45 us

Batch Job Summary Report for Job "test_scf" (20933519) on daint
2020-03-10T14:11:32 2020-03-10T14:11:32 2020-03-10T14:11:46 2020-03-10T14:17:53   00:06:07   00:20:00
Username    Account     Partition   NNodes   Energy
antonk      csstaff     normal          16        0 joules

This job did not utilize any GPUs

Scratch File System        Files       Quota
/scratch/snx3000            2632     1000000