     Program PWSCF v.6.1 (svn rev. 13369) starts on  2May2017 at 14: 0:42

     Current dimensions of program PWSCF are:
     Max number of different atomic species (ntypx) = 10
     Max number of k-points (npk) =  40000
     Max angular momentum in pseudopotentials (lmaxx) =  3

     Subspace diagonalization in iterative solution of the eigenvalue problem:
     one sub-group per band group will be used

     bravais-lattice index     =            0
     lattice parameter (alat)  =      31.4056  a.u.
     unit-cell volume          =   21903.1443 (a.u.)^3
     number of atoms/cell      =           54
     number of atomic types    =            2
     number of electrons       =       432.00
     number of Kohn-Sham states=          259
     kinetic-energy cutoff     =      45.0000  Ry
     charge density cutoff     =     360.0000  Ry
     convergence threshold     =      5.4E-07
     mixing beta               =       0.3500
     number of iterations used =            8  plain     mixing
     Exchange-correlation      = SLA  PW   PBE  PBE ( 1  4  3  4 0 0)

     celldm(1)=  31.405604  celldm(2)=   0.000000  celldm(3)=   0.000000
     celldm(4)=   0.000000  celldm(5)=   0.000000  celldm(6)=   0.000000

     crystal axes: (cart. coord. in units of alat)
               a(1) = (   1.000000   0.000000   0.000000 )
               a(2) = (  -0.500000   0.707107  -0.500000 )
               a(3) = (   0.000000   0.000000   1.000000 )

     reciprocal axes: (cart. coord. in units 2 pi/alat)
               b(1) = (  1.000000  0.707107  0.000000 )
               b(2) = (  0.000000  1.414214  0.000000 )
               b(3) = (  0.000000  0.707107  1.000000 )

     PseudoPot. # 1 for Cs read from file:
     ./pseudo/Cs_pbe_v1.uspp.F.UPF
     MD5 check sum: 3476d69cb178dfad3ffaa59df4e07ca4
     Pseudo is Ultrasoft + core correction, Zval =  9.0
     Generated by new atomic code, or converted to UPF format
     Using radial grid of  905 points,  6 beta functions with:
                l(1) =   0
                l(2) =   0
                l(3) =   1
                l(4) =   1
                l(5) =   2
                l(6) =   2
     Q(r) pseudized with  6 coefficients,  rinner =    1.500   1.500   1.500
                                                       1.500   1.500

     PseudoPot. # 2 for I  read from file:
     ./pseudo/I_pbe_v1.uspp.F.UPF
     MD5 check sum: 51366c2fb896752a147e77acbb9f6bcb
     Pseudo is Ultrasoft + core correction, Zval =  7.0
     Generated by new atomic code, or converted to UPF format
     Using radial grid of  893 points,  6 beta functions with:
                l(1) =   0
                l(2) =   0
                l(3) =   1
                l(4) =   1
                l(5) =   2
                l(6) =   2
     Q(r) pseudized with  8 coefficients,  rinner =    1.500   1.500   1.500
                                                       1.500   1.500

     atomic species   valence    mass     pseudopotential
        Cs             9.00   132.90545     Cs( 1.00)
        I              7.00   126.90447     I ( 1.00)

     No symmetry found

                                    s                        frac. trans.

      isym =  1     identity

 cryst.   s( 1) = (     1          0          0      )
                  (     0          1          0      )
                  (     0          0          1      )

 cart.    s( 1) = (  1.0000000  0.0000000  0.0000000 )
                  (  0.0000000  1.0000000  0.0000000 )
                  (  0.0000000  0.0000000  1.0000000 )

   Cartesian axes

     site n.     atom                  positions (alat units)
         1           Cs  tau(   1) = (   0.5017165   0.7026808   0.4992023  )
         2           Cs  tau(   2) = (   0.4960805   0.7058427  -0.1691590  )
         3           Cs  tau(   3) = (   0.4973839   0.7031255   0.1659755  )
         4           Cs  tau(   4) = (   0.8318677   0.2320059  -0.1639536  )
         5           Cs  tau(   5) = (   0.8335526   0.2314284   0.1644626  )
         6           Cs  tau(   6) = (  -0.1676596   0.2398332   0.5022631  )
         7           Cs  tau(   7) = (  -0.3338764   0.4754186  -0.3307326  )
         8           Cs  tau(   8) = (  -0.3290218   0.4693873   0.0007166  )
         9           Cs  tau(   9) = (   0.6633029   0.4748157   0.3338028  )
        10           Cs  tau(  10) = (   0.3302503   0.0029377   0.9977557  )
        11           Cs  tau(  11) = (  -0.1711473   0.7070771  -0.1649074  )
        12           Cs  tau(  12) = (   0.3307027   0.0023636   0.6699324  )
        13           Cs  tau(  13) = (   0.1681891   0.2402687  -0.1666184  )
        14           Cs  tau(  14) = (   0.1658874   0.2310087   0.1659350  )
        15           Cs  tau(  15) = (   0.1714200   0.2363076   0.4995404  )
        16           Cs  tau(  16) = (  -0.0016889   0.4686185  -0.3297897  )
        17           Cs  tau(  17) = (  -0.0015722   0.4670557  -0.0013371  )
        18           Cs  tau(  18) = (   0.0013419   0.4737555   0.3373138  )
        19           Cs  tau(  19) = (   0.6651916   0.0025960   0.0037759  )
        20           Cs  tau(  20) = (   0.6668646   0.0025886   0.3373870  )
        21           Cs  tau(  21) = (   0.6687750   0.0043255   0.6667979  )
        22           Cs  tau(  22) = (   0.5037513   0.2364122   0.8304015  )
        23           Cs  tau(  23) = (   0.5024832   0.2354094   0.1625533  )
        24           Cs  tau(  24) = (   0.4958562   0.2376343   0.5015060  )
        25           Cs  tau(  25) = (   0.3371380   0.4726397  -0.3306555  )
        26           Cs  tau(  26) = (   0.3365983   0.4737141  -0.0026791  )
        27           Cs  tau(  27) = (   0.3372565   0.4725517   0.3307907  )
        28           I   tau(  28) = (   0.1671386   0.0047885   0.1665269  )
        29           I   tau(  29) = (   0.1626246   0.0001134   0.5026117  )
        30           I   tau(  30) = (   0.1632568   0.0033752   0.8337242  )
        31           I   tau(  31) = (   0.0026378   0.2396704   0.0006840  )
        32           I   tau(  32) = (   0.0014809   0.2322060   0.3303745  )
        33           I   tau(  33) = (   0.0003852   0.2364829   0.6714010  )
        34           I   tau(  34) = (  -0.1666704   0.4711793  -0.1714751  )
        35           I   tau(  35) = (  -0.1648226   0.4696941   0.1625623  )
        36           I   tau(  36) = (  -0.1627187   0.4731941   0.5020935  )
        37           I   tau(  37) = (   0.0039733   0.7060076  -0.3308480  )
        38           I   tau(  38) = (   0.4978450   0.0042372   0.4992420  )
        39           I   tau(  39) = (   0.5032656   0.0008918   0.8367556  )
        40           I   tau(  40) = (   0.3299398   0.2354726  -0.0034064  )
        41           I   tau(  41) = (   0.3365395   0.2362897   0.3368755  )
        42           I   tau(  42) = (   0.3302425   0.2322312   0.6679200  )
        43           I   tau(  43) = (   0.1626960   0.4741192  -0.1668570  )
        44           I   tau(  44) = (   0.1630565   0.4731238   0.1639866  )
        45           I   tau(  45) = (   0.1638568   0.4714577   0.5039082  )
        46           I   tau(  46) = (   0.3370183   0.7043389  -0.3347233  )
        47           I   tau(  47) = (   0.3289947   0.7050906   0.0005328  )
        48           I   tau(  48) = (   0.8351171   0.0030861   0.8300982  )
        49           I   tau(  49) = (   0.6623487   0.2335745  -0.0000096  )
        50           I   tau(  50) = (   0.6653641   0.2335697   0.3374476  )
        51           I   tau(  51) = (   0.6642059   0.2397299   0.6657209  )
        52           I   tau(  52) = (   0.5030050   0.4750142  -0.1656119  )
        53           I   tau(  53) = (   0.5043957   0.4733523   0.1664296  )
        54           I   tau(  54) = (   0.4984780   0.4757569   0.4986171  )

   Crystallographic axes

     site n.     atom                  positions (cryst. coord.)
         1           Cs  tau(   1) = (  0.9985868  0.9937407  0.9960726  )
         2           Cs  tau(   2) = (  0.9951867  0.9982123  0.3299471  )
         3           Cs  tau(   3) = (  0.9945687  0.9943697  0.6631603  )
         4           Cs  tau(   4) = (  0.9959206  0.3281058  0.0000993  )
         5           Cs  tau(   5) = (  0.9971971  0.3272891  0.3281072  )
         6           Cs  tau(   6) = (  0.0019280  0.3391753  0.6718507  )
         7           Cs  tau(   7) = (  0.0022954  0.6723435  0.0054392  )
         8           Cs  tau(   8) = (  0.0028851  0.6638138  0.3326235  )
         9           Cs  tau(   9) = (  0.9990483  0.6714908  0.6695483  )
        10           Cs  tau(  10) = (  0.3323275  0.0041545  0.9998330  )
        11           Cs  tau(  11) = (  0.3288317  0.9999580  0.3350716  )
        12           Cs  tau(  12) = (  0.3323740  0.0033426  0.6716037  )
        13           Cs  tau(  13) = (  0.3380847  0.3397912  0.0032772  )
        14           Cs  tau(  14) = (  0.3292352  0.3266957  0.3292828  )
        15           Cs  tau(  15) = (  0.3385147  0.3341894  0.6666351  )
        16           Cs  tau(  16) = (  0.3296744  0.6627266  0.0015736  )
        17           Cs  tau(  17) = (  0.3286860  0.6605165  0.3289212  )
        18           Cs  tau(  18) = (  0.3363376  0.6699914  0.6723095  )
        19           Cs  tau(  19) = (  0.6670272  0.0036712  0.0056115  )
        20           Cs  tau(  20) = (  0.6686950  0.0036609  0.3392174  )
        21           Cs  tau(  21) = (  0.6718336  0.0061171  0.6698564  )
        22           Cs  tau(  22) = (  0.6709200  0.3343373  0.9975701  )
        23           Cs  tau(  23) = (  0.6689428  0.3329192  0.3290129  )
        24           Cs  tau(  24) = (  0.6638890  0.3360656  0.6695388  )
        25           Cs  tau(  25) = (  0.6713448  0.6684135  0.0035512  )
        26           Cs  tau(  26) = (  0.6715648  0.6699330  0.3322874  )
        27           Cs  tau(  27) = (  0.6714010  0.6682890  0.6649352  )
        28           I   tau(  28) = (  0.1705246  0.0067720  0.1699129  )
        29           I   tau(  29) = (  0.1627048  0.0001603  0.5026919  )
        30           I   tau(  30) = (  0.1656435  0.0047733  0.8361108  )
        31           I   tau(  31) = (  0.1721104  0.3389451  0.1701566  )
        32           I   tau(  32) = (  0.1656753  0.3283888  0.4945689  )
        33           I   tau(  33) = (  0.1676038  0.3344373  0.8386197  )
        34           I   tau(  34) = (  0.1665037  0.6663482  0.1616990  )
        35           I   tau(  35) = (  0.1673013  0.6642478  0.4946862  )
        36           I   tau(  36) = (  0.1718801  0.6691975  0.8366922  )
        37           I   tau(  37) = (  0.5031961  0.9984456  0.1683748  )
        38           I   tau(  38) = (  0.5008411  0.0059923  0.5022382  )
        39           I   tau(  39) = (  0.5038963  0.0012613  0.8373863  )
        40           I   tau(  40) = (  0.4964441  0.3330085  0.1630979  )
        41           I   tau(  41) = (  0.5036216  0.3341641  0.5039576  )
        42           I   tau(  42) = (  0.4944548  0.3284246  0.8321322  )
        43           I   tau(  43) = (  0.4979489  0.6705058  0.1683959  )
[...]
        k(   11) = (   0.0000000   0.3333333   0.4000000), wk =   0.0133333
        k(   12) = (   0.0000000   0.3333333  -0.4000000), wk =   0.0133333
        k(   13) = (   0.0000000   0.3333333  -0.2000000), wk =   0.0133333
        k(   14) = (   0.0000000  -0.5000000   0.0000000), wk =   0.0133333
        k(   15) = (   0.0000000  -0.5000000   0.2000000), wk =   0.0133333
        k(   16) = (   0.0000000  -0.5000000   0.4000000), wk =   0.0133333
        k(   17) = (   0.2000000   0.0000000   0.2000000), wk =   0.0066667
        k(   18) = (   0.2000000  -0.0000000   0.4000000), wk =   0.0066667
        k(   19) = (   0.2000000   0.0000000  -0.4000000), wk =   0.0066667
        k(   20) = (   0.2000000   0.0000000  -0.2000000), wk =   0.0133333
        k(   21) = (   0.2000000   0.1666667   0.2000000), wk =   0.0066667
        k(   22) = (   0.2000000   0.1666667   0.4000000), wk =   0.0066667
        k(   23) = (   0.2000000   0.1666667  -0.4000000), wk =   0.0066667
        k(   24) = (   0.2000000   0.1666667  -0.2000000), wk =   0.0133333
        k(   25) = (   0.2000000   0.3333333   0.2000000), wk =   0.0066667
        k(   26) = (   0.2000000   0.3333333   0.4000000), wk =   0.0066667
        k(   27) = (   0.2000000   0.3333333  -0.4000000), wk =   0.0066667
        k(   28) = (   0.2000000   0.3333333  -0.2000000), wk =   0.0133333
        k(   29) = (   0.2000000  -0.5000000   0.2000000), wk =   0.0066667
        k(   30) = (   0.2000000  -0.5000000   0.4000000), wk =   0.0066667
        k(   31) = (   0.2000000  -0.5000000  -0.4000000), wk =   0.0066667
        k(   32) = (   0.2000000  -0.5000000  -0.2000000), wk =   0.0133333
        k(   33) = (   0.2000000  -0.3333333   0.2000000), wk =   0.0066667
        k(   34) = (   0.2000000  -0.3333333   0.4000000), wk =   0.0066667
        k(   35) = (   0.2000000  -0.3333333  -0.4000000), wk =   0.0066667
        k(   36) = (   0.2000000  -0.1666667   0.2000000), wk =   0.0066667
        k(   37) = (   0.2000000  -0.1666667   0.4000000), wk =   0.0066667
        k(   38) = (   0.2000000  -0.1666667  -0.4000000), wk =   0.0066667
        k(   39) = (   0.4000000   0.0000000   0.4000000), wk =   0.0066667
        k(   40) = (   0.4000000   0.0000000  -0.4000000), wk =   0.0133333
        k(   41) = (   0.4000000   0.1666667   0.4000000), wk =   0.0066667
        k(   42) = (   0.4000000   0.1666667  -0.4000000), wk =   0.0133333
        k(   43) = (   0.4000000   0.3333333   0.4000000), wk =   0.0066667
        k(   44) = (   0.4000000   0.3333333  -0.4000000), wk =   0.0133333
        k(   45) = (   0.4000000  -0.5000000   0.4000000), wk =   0.0066667
        k(   46) = (   0.4000000  -0.5000000  -0.4000000), wk =   0.0133333
        k(   47) = (   0.4000000  -0.3333333   0.4000000), wk =   0.0066667
        k(   48) = (   0.4000000  -0.1666667   0.4000000), wk =   0.0066667
        k(   49) = (   0.0000000  -0.2000000   0.2000000), wk =   0.0133333
        k(   50) = (   0.2000000  -0.2000000   0.0000000), wk =   0.0133333
        k(   51) = (  -0.2000000   0.0000000   0.0000000), wk =   0.0133333
        k(   52) = (   0.0000000  -0.4000000   0.4000000), wk =   0.0133333
        k(   53) = (   0.4000000  -0.4000000   0.0000000), wk =   0.0133333
        k(   54) = (  -0.4000000   0.0000000   0.0000000), wk =   0.0133333
        k(   55) = (   0.0000000  -0.3666667   0.2000000), wk =   0.0133333
        k(   56) = (   0.2000000  -0.3666667   0.0000000), wk =   0.0133333
        k(   57) = (  -0.2000000  -0.1666667   0.0000000), wk =   0.0133333
        k(   58) = (   0.0000000  -0.5666667   0.4000000), wk =   0.0133333
        k(   59) = (   0.4000000  -0.5666667   0.0000000), wk =   0.0133333
        k(   60) = (  -0.4000000  -0.1666667   0.0000000), wk =   0.0133333
[...]
        k(  206) = (  -0.4000000   1.1333333  -0.4000000), wk =   0.0066667
        k(  207) = (   0.4000000  -0.7333333  -0.4000000), wk =   0.0066667
        k(  208) = (  -0.4000000   0.0666667  -0.4000000), wk =   0.0133333
        k(  209) = (  -0.4000000   0.3333333   0.4000000), wk =   0.0133333
        k(  210) = (   0.4000000  -0.7333333   0.4000000), wk =   0.0133333
        k(  211) = (  -0.4000000   0.1000000   0.4000000), wk =   0.0066667
        k(  212) = (  -0.4000000   0.3000000  -0.4000000), wk =   0.0066667
        k(  213) = (   0.4000000   0.1000000  -0.4000000), wk =   0.0066667
        k(  214) = (  -0.4000000   0.9000000  -0.4000000), wk =   0.0133333
        k(  215) = (  -0.4000000  -0.0666667   0.4000000), wk =   0.0066667
        k(  216) = (  -0.4000000   0.4666667  -0.4000000), wk =   0.0066667
        k(  217) = (   0.4000000  -0.0666667  -0.4000000), wk =   0.0066667
        k(  218) = (  -0.4000000  -0.2333333   0.4000000), wk =   0.0066667
        k(  219) = (  -0.4000000   0.6333333  -0.4000000), wk =   0.0066667
        k(  220) = (   0.4000000  -0.2333333  -0.4000000), wk =   0.0066667

     Initial potential from superposition of free atoms

     starting charge  430.93370, renormalised to  432.00000
     Starting wfc are  459 randomized atomic wfcs

     Self-consistent Calculation

     iteration #  1     ecut=    45.00 Ry     beta=0.35
     Davidson diagonalization with overlap
     ethr =  1.00E-02,  avg # of iterations =  3.0

     Threshold (ethr) on eigenvalues was too large:
     Diagonalizing with lowered threshold

     Davidson diagonalization with overlap
     ethr =  2.91E-04,  avg # of iterations =  4.1

     total energy              =   -3481.19420849 Ry
     Harris-Foulkes estimate   =   -3481.65202611 Ry
     estimated scf accuracy    <       1.19717176 Ry

[...]

     total energy              =   -3481.57417734 Ry
     Harris-Foulkes estimate   =   -3481.57417755 Ry
     estimated scf accuracy    <       0.00000150 Ry

     iteration # 25     ecut=    45.00 Ry     beta=0.35
     Davidson diagonalization with overlap
     ethr =  3.48E-10,  avg # of iterations =  4.3

     End of self-consistent calculation

          k = 0.0000 0.0000 0.0000 (111643 PWs)   bands (ev):

   -19.0212 -19.0108 -18.9973 -18.9853 -18.9849 -18.9814 -18.9803 -18.9745
   -18.9594 -18.9580 -18.9546 -18.9518 -18.9406 -18.9379 -18.9234 -18.9170
   -18.9059 -18.8992 -18.8973 -18.8846 -18.8819 -18.8772 -18.8671 -18.8301
   -18.8225 -18.8048 -18.7527  -9.2896  -9.2695  -9.2649  -9.2505  -9.2290
    -9.2121  -9.1997  -9.1968  -9.1888  -9.1830  -9.1706  -9.1582  -9.1484
    -9.1408  -9.1324  -9.1276  -9.1243  -9.1057  -9.1033  -9.0958  -9.0810
    -9.0659  -9.0475  -9.0413  -9.0315  -9.0150  -8.9983  -5.8874  -5.8820
    -5.8745  -5.8741  -5.8728  -5.8709  -5.8643  -5.8578  -5.8565  -5.8524
    -5.8469  -5.8370  -5.8329  -5.8323  -5.8281  -5.8173  -5.8129  -5.8122
    -5.8101  -5.8078  -5.8046  -5.8036  -5.8027  -5.7989  -5.7977  -5.7975
    -5.7964  -5.7952  -5.7902  -5.7878  -5.7857  -5.7811  -5.7787  -5.7779
    -5.7739  -5.7719  -5.7711  -5.7669  -5.7617  -5.7605  -5.7581  -5.7565
    -5.7533  -5.7510  -5.7482  -5.7468  -5.7419  -5.7406  -5.7353  -5.7325
    -5.7314  -5.7295  -5.7250  -5.7239  -5.7184  -5.7168  -5.7131  -5.7088
    -5.7065  -5.7056  -5.7036  -5.7024  -5.7003  -5.6975  -5.6946  -5.6889
    -5.6866  -5.6828  -5.6783  -5.6773  -5.6629  -5.6529  -5.6514  -5.6435
    -5.6411  -5.6369  -5.6273  -5.6237  -5.5873  -5.5827  -5.5800   0.3985
     0.4028   0.4077   0.4196   0.4251   0.4378   0.4489   0.4669   0.5125
     0.5165   0.5273   0.5350   0.5364   0.5414   0.5461   0.5531   0.5651
     0.5668   0.5709   0.5729   0.5772   0.5838   0.5920   0.5951   0.5973
     0.6057   0.7060   0.7092   0.7136   0.7165   0.7282   0.7335   0.7411
     0.7422   0.7504   0.7545   0.7579   0.7653   0.7664   0.7783   0.7835
     0.7855   0.7885   0.7942   0.7966   0.8030   0.8067   0.8091   0.8166
     0.8179   0.8200   0.8212   0.8318   0.8372   0.8379   0.8426   0.8433
     0.8472   0.8476   0.8527   0.8602   0.8646   0.8714   0.8731   0.8804
     0.8872   0.9576   0.9647   0.9666   0.9709   0.9763   0.9824   0.9849
     0.9867   0.9921   1.0013   1.0044   1.0166   1.0603   1.0681   1.0708
     4.9234   5.7359   5.7440   5.7533   5.7564   5.7609   5.7654   6.3185
     6.3264   6.3314   6.3456   6.3528   6.3692   6.4032   6.4123   6.4291
     6.4353   6.4373   6.4437   6.4568   6.4747   6.5064   6.5135   6.5217
     6.5238   6.5318   6.5397   6.5451   6.5480   6.5514   6.5672   6.5687
     6.5952   6.7113   6.7149   6.7191   6.9213   6.9289   6.9463   6.9526
     6.9672   6.9696   6.9925

     occupation numbers
     1.0000   1.0000   1.0000   1.0000   1.0000   1.0000   1.0000   1.0000
     1.0000   1.0000   1.0000   1.0000   1.0000   1.0000   1.0000   1.0000
     1.0000   1.0000   1.0000   1.0000   1.0000   1.0000   1.0000   1.0000
     1.0000   1.0000   1.0000   1.0000   1.0000   1.0000   1.0000   1.0000
     1.0000   1.0000   1.0000   1.0000   1.0000   1.0000   1.0000   1.0000
     1.0000   1.0000   1.0000   1.0000   1.0000   1.0000   1.0000   1.0000
     1.0000   1.0000   1.0000   1.0000   1.0000   1.0000   1.0000   1.0000
     1.0000   1.0000   1.0000   1.0000   1.0000   1.0000   1.0000   1.0000
     1.0000   1.0000   1.0000   1.0000   1.0000   1.0000   1.0000   1.0000
     1.0000   1.0000   1.0000   1.0000   1.0000   1.0000   1.0000   1.0000
     1.0000   1.0000   1.0000   1.0000   1.0000   1.0000   1.0000   1.0000
     1.0000   1.0000   1.0000   1.0000   1.0000   1.0000   1.0000   1.0000
     1.0000   1.0000   1.0000   1.0000   1.0000   1.0000   1.0000   1.0000
     1.0000   1.0000   1.0000   1.0000   1.0000   1.0000   1.0000   1.0000
     1.0000   1.0000   1.0000   1.0000   1.0000   1.0000   1.0000   1.0000
     1.0000   1.0000   1.0000   1.0000   1.0000   1.0000   1.0000   1.0000
     1.0000   1.0000   1.0000   1.0000   1.0000   1.0000   1.0000   1.0000
     1.0000   1.0000   1.0000   1.0000   1.0000   1.0000   1.0000   1.0000
     1.0000   1.0000   1.0000   1.0000   1.0000   1.0000   1.0000   1.0000
     1.0000   1.0000   1.0000   1.0000   1.0000   1.0000   1.0000   1.0000
     1.0000   1.0000   1.0000   1.0000   1.0000   1.0000   1.0000   1.0000
     1.0000   1.0000   1.0000   1.0000   1.0000   1.0000   1.0000   1.0000
     1.0000   1.0000   1.0000   1.0000   1.0000   1.0000   1.0000   1.0000
     1.0000   1.0000   1.0000   1.0000   1.0000   1.0000   1.0000   1.0000
     1.0000   1.0000   1.0000   1.0000   1.0000   1.0000   1.0000   1.0000
     1.0000   1.0000   1.0000   1.0000   1.0000   1.0000   1.0000   1.0000
     1.0000   1.0000   1.0000   1.0000   1.0000   1.0000   1.0000   1.0000
     0.0000   0.0000   0.0000   0.0000   0.0000   0.0000   0.0000   0.0000
     0.0000   0.0000   0.0000   0.0000   0.0000   0.0000   0.0000   0.0000
     0.0000   0.0000   0.0000   0.0000   0.0000   0.0000   0.0000   0.0000
     0.0000   0.0000   0.0000   0.0000   0.0000   0.0000   0.0000   0.0000
     0.0000   0.0000   0.0000   0.0000   0.0000   0.0000   0.0000   0.0000
     0.0000   0.0000   0.0000

[...]

          k =-0.2000-0.1414 0.0000 (111721 PWs)   bands (ev):

[...]

          k =-0.4000 0.3300-0.4000 (111604 PWs)   bands (ev):

[...]

          k = 0.4000-0.3300-0.4000 (111604 PWs)   bands (ev):

   -19.0212 -19.0108 -18.9973 -18.9852 -18.9849 -18.9814 -18.9803 -18.9745
   -18.9594 -18.9580 -18.9546 -18.9518 -18.9406 -18.9379 -18.9234 -18.9170
   -18.9059 -18.8992 -18.8973 -18.8846 -18.8819 -18.8772 -18.8671 -18.8301
   -18.8225 -18.8048 -18.7527  -9.2894  -9.2689  -9.2652  -9.2506  -9.2285
    -9.2116  -9.1994  -9.1973  -9.1884  -9.1844  -9.1709  -9.1575  -9.1478
    -9.1412  -9.1331  -9.1281  -9.1249  -9.1056  -9.1032  -9.0963  -9.0810
    -9.0658  -9.0472  -9.0415  -9.0306  -9.0148  -8.9980  -5.8999  -5.8988
    -5.8784  -5.8679  -5.8666  -5.8620  -5.8552  -5.8503  -5.8478  -5.8437
    -5.8412  -5.8372  -5.8322  -5.8246  -5.8235  -5.8219  -5.8186  -5.8164
    -5.8141  -5.8120  -5.8096  -5.8070  -5.8058  -5.8031  -5.8008  -5.7982
    -5.7966  -5.7945  -5.7920  -5.7879  -5.7828  -5.7803  -5.7781  -5.7774
    -5.7747  -5.7725  -5.7708  -5.7678  -5.7644  -5.7628  -5.7607  -5.7573
    -5.7540  -5.7500  -5.7482  -5.7457  -5.7417  -5.7407  -5.7395  -5.7349
    -5.7313  -5.7285  -5.7250  -5.7240  -5.7184  -5.7147  -5.7112  -5.7098
    -5.7075  -5.7066  -5.7032  -5.7008  -5.6996  -5.6957  -5.6911  -5.6872
    -5.6851  -5.6834  -5.6797  -5.6773  -5.6608  -5.6542  -5.6517  -5.6448
    -5.6381  -5.6350  -5.6271  -5.6245  -5.5875  -5.5834  -5.5806   0.3367
     0.3394   0.3852   0.3942   0.4380   0.4415   0.4490   0.4665   0.4677
     0.4814   0.4855   0.5171   0.5294   0.5333   0.5406   0.5470   0.5977
     0.5990   0.6119   0.6298   0.6330   0.6465   0.6502   0.6682   0.6760
     0.6959   0.7010   0.7038   0.7086   0.7118   0.7195   0.7296   0.7341
     0.7401   0.7460   0.7496   0.7512   0.7581   0.7628   0.7713   0.7757
     0.7810   0.7860   0.7914   0.7964   0.8010   0.8061   0.8104   0.8163
     0.8201   0.8215   0.8253   0.8319   0.8368   0.8434   0.8510   0.8595
     0.8638   0.8684   0.8759   0.8827   0.8863   0.8950   0.9005   0.9075
     0.9139   0.9233   0.9279   0.9327   0.9381   0.9479   0.9528   0.9550
     0.9624   0.9712   0.9884   0.9911   1.0088   1.0108   1.0171   1.0346
     5.4660   5.6768   5.6970   5.7023   5.7297   5.8116   5.9584   6.1442
     6.1636   6.1916   6.1953   6.2639   6.2937   6.3014   6.3343   6.3419
     6.3713   6.3976   6.4027   6.4238   6.4381   6.4453   6.4615   6.5122
     6.5283   6.5451   6.5637   6.5733   6.5837   6.6398   6.7056   6.7840
     6.8156   6.8260   6.8364   6.8426   6.8626   6.8671   6.8771   6.8863
     6.9880   6.9941   7.0241

     occupation numbers
     1.0000   1.0000   1.0000   1.0000   1.0000   1.0000   1.0000   1.0000
     1.0000   1.0000   1.0000   1.0000   1.0000   1.0000   1.0000   1.0000
     1.0000   1.0000   1.0000   1.0000   1.0000   1.0000   1.0000   1.0000
     1.0000   1.0000   1.0000   1.0000   1.0000   1.0000   1.0000   1.0000
     1.0000   1.0000   1.0000   1.0000   1.0000   1.0000   1.0000   1.0000
     1.0000   1.0000   1.0000   1.0000   1.0000   1.0000   1.0000   1.0000
     1.0000   1.0000   1.0000   1.0000   1.0000   1.0000   1.0000   1.0000
     1.0000   1.0000   1.0000   1.0000   1.0000   1.0000   1.0000   1.0000
     1.0000   1.0000   1.0000   1.0000   1.0000   1.0000   1.0000   1.0000
     1.0000   1.0000   1.0000   1.0000   1.0000   1.0000   1.0000   1.0000
     1.0000   1.0000   1.0000   1.0000   1.0000   1.0000   1.0000   1.0000
     1.0000   1.0000   1.0000   1.0000   1.0000   1.0000   1.0000   1.0000
     1.0000   1.0000   1.0000   1.0000   1.0000   1.0000   1.0000   1.0000
     1.0000   1.0000   1.0000   1.0000   1.0000   1.0000   1.0000   1.0000
     1.0000   1.0000   1.0000   1.0000   1.0000   1.0000   1.0000   1.0000
     1.0000   1.0000   1.0000   1.0000   1.0000   1.0000   1.0000   1.0000
     1.0000   1.0000   1.0000   1.0000   1.0000   1.0000   1.0000   1.0000
     1.0000   1.0000   1.0000   1.0000   1.0000   1.0000   1.0000   1.0000
     1.0000   1.0000   1.0000   1.0000   1.0000   1.0000   1.0000   1.0000
     1.0000   1.0000   1.0000   1.0000   1.0000   1.0000   1.0000   1.0000
     1.0000   1.0000   1.0000   1.0000   1.0000   1.0000   1.0000   1.0000
     1.0000   1.0000   1.0000   1.0000   1.0000   1.0000   1.0000   1.0000
     1.0000   1.0000   1.0000   1.0000   1.0000   1.0000   1.0000   1.0000
     1.0000   1.0000   1.0000   1.0000   1.0000   1.0000   1.0000   1.0000
     1.0000   1.0000   1.0000   1.0000   1.0000   1.0000   1.0000   1.0000
     1.0000   1.0000   1.0000   1.0000   1.0000   1.0000   1.0000   1.0000
     1.0000   1.0000   1.0000   1.0000   1.0000   1.0000   1.0000   1.0000
     0.0000   0.0000   0.0000   0.0000   0.0000   0.0000   0.0000   0.0000
     0.0000   0.0000   0.0000   0.0000   0.0000   0.0000   0.0000   0.0000
     0.0000   0.0000   0.0000   0.0000   0.0000   0.0000   0.0000   0.0000
     0.0000   0.0000   0.0000   0.0000   0.0000   0.0000   0.0000   0.0000
     0.0000   0.0000   0.0000   0.0000   0.0000   0.0000   0.0000   0.0000
     0.0000   0.0000   0.0000

     the Fermi energy is     2.5730 ev

!    total energy              =   -3481.57417769 Ry
     Harris-Foulkes estimate   =   -3481.57417767 Ry
     estimated scf accuracy    <       0.00000024 Ry

     The total energy is the sum of the following terms:

     one-electron contribution =    -319.27193617 Ry
     hartree contribution      =     299.21424708 Ry
     xc contribution           =   -2124.99944579 Ry
     ewald contribution        =   -1336.51704280 Ry
     smearing contrib. (-TS)   =       0.00000000 Ry

     convergence has been achieved in  25 iterations

     Writing output data file aiida_.save

     General routines

     Parallel routines

   This run was terminated on:  14:57: 0   2May2017

   JOB DONE.