     Program PWSCF v.6.1 starts on 25Sep2017 at 11: 7: 0

     Current dimensions of program PWSCF are:
     Max number of different atomic species (ntypx) = 10
     Max number of k-points (npk) =  40000
     Max angular momentum in pseudopotentials (lmaxx) =  3

     Subspace diagonalization in iterative solution of the eigenvalue problem:
     one sub-group per band group will be used

   Info: using nr1, nr2, nr3 values from input

     bravais-lattice index     =            0
     lattice parameter (alat)  =       1.0000  a.u.
     unit-cell volume          =    8646.7719 (a.u.)^3
     number of atoms/cell      =           64
     number of atomic types    =            2
     number of electrons       =       266.00
     number of Kohn-Sham states=          160
     kinetic-energy cutoff     =      40.0000  Ry
     charge density cutoff     =     300.0000  Ry
     convergence threshold     =      1.0E-10
     mixing beta               =       0.7000
     number of iterations used =            8  plain     mixing
     Exchange-correlation      = SLA  PZ   NOGX NOGC ( 1  1  0  0 0 0)
     nstep                     =          100

     celldm(1)=   1.000000  celldm(2)=   0.000000  celldm(3)=   0.000000
     celldm(4)=   0.000000  celldm(5)=   0.000000  celldm(6)=   0.000000

     crystal axes: (cart. coord. in units of alat)
               a(1) = (  20.525071   0.000000   0.000000 )
               a(2) = (   0.000000  20.525071   0.000000 )
               a(3) = (   0.000000   0.000000  20.525071 )

     reciprocal axes: (cart. coord. in units 2 pi/alat)
               b(1) = (  0.048721  0.000000  0.000000 )
               b(2) = (  0.000000  0.048721  0.000000 )
               b(3) = (  0.000000  0.000000  0.048721 )

     PseudoPot. # 1 for Ge read from file:
     ./ge_lda_v1.uspp.F.UPF
     MD5 check sum: 575f587c0f86b3eee266efe92ef02c15
     Pseudo is Ultrasoft + core correction, Zval = 14.0
     Generated by new atomic code, or converted to UPF format
     Using radial grid of  873 points,  6 beta functions with:
                l(1) =   0
                l(2) =   0
                l(3) =   1
                l(4) =   1
                l(5) =   2
                l(6) =   2
     Q(r) pseudized with  8 coefficients,  rinner =    1.400   1.400   1.400
                                                       1.400   1.400

     PseudoPot. # 2 for Si read from file:
     ./si_lda_v1.uspp.F.UPF
     MD5 check sum: ca10e49b2835512e91ee5100d37237e0
     Pseudo is Ultrasoft + core correction, Zval =  4.0
     Generated by new atomic code, or converted to UPF format
     Using radial grid of  899 points,  6 beta functions with:
                l(1) =   0
                l(2) =   0
                l(3) =   1
                l(4) =   1
                l(5) =   2
                l(6) =   2
     Q(r) pseudized with  8 coefficients,  rinner =    0.900   0.900   0.900
                                                       0.900   0.900

     atomic species   valence    mass     pseudopotential
        Ge            14.00    72.61000     Ge( 1.00)
        Si             4.00    28.08550     Si( 1.00)

     24 Sym. Ops. (no inversion) found

                                    s                        frac. trans.

      isym =  1     identity

 cryst.   s( 1) = (     1          0          0      )
                  (     0          1          0      )
                  (     0          0          1      )

 cart.    s( 1) = (  1.0000000  0.0000000  0.0000000 )
                  (  0.0000000  1.0000000  0.0000000 )
                  (  0.0000000  0.0000000  1.0000000 )

      isym =  2     180 deg rotation - cart. axis [0,0,1]

[...]

 cryst.   s(10) = (     0         -1          0      )
                  (     0          0         -1      )
                  (     1          0          0      )

 cart.    s(10) = (  0.0000000  0.0000000  1.0000000 )
                  ( -1.0000000  0.0000000  0.0000000 )
                  (  0.0000000 -1.0000000  0.0000000 )

[...]

      isym = 13     inv. 180 deg rotation - cart. axis [1,1,0]

[...]

   Cartesian axes

     site n.     atom                  positions (a.u.)
         1           Ge  tau(   1) = (   0.0000000   0.0000000   0.0000000  )
         2           Si  tau(   2) = (   0.0000000   0.0000000  10.2625355  )
         3           Si  tau(   3) = (   0.0000000  10.2625355   0.0000000  )
         4           Si  tau(   4) = (   0.0000000  10.2625355  10.2625355  )
         5           Si  tau(   5) = (  10.2625355   0.0000000   0.0000000  )
         6           Si  tau(   6) = (  10.2625355   0.0000000  10.2625355  )
         7           Si  tau(   7) = (  10.2625355  10.2625355   0.0000000  )
         8           Si  tau(   8) = (  10.2625355  10.2625355  10.2625355  )
         9           Si  tau(   9) = (   0.0000000   5.1312678   5.1312678  )
        10           Si  tau(  10) = (   0.0000000   5.1312678  15.3938033  )
        11           Si  tau(  11) = (   0.0000000  15.3938033   5.1312678  )
        12           Si  tau(  12) = (   0.0000000  15.3938033  15.3938033  )
        13           Si  tau(  13) = (  10.2625355   5.1312678   5.1312678  )
        14           Si  tau(  14) = (  10.2625355   5.1312678  15.3938033  )
        15           Si  tau(  15) = (  10.2625355  15.3938033   5.1312678  )
        16           Si  tau(  16) = (  10.2625355  15.3938033  15.3938033  )
        17           Si  tau(  17) = (   5.1312678   0.0000000   5.1312678  )
        18           Si  tau(  18) = (   5.1312678   0.0000000  15.3938033  )
        19           Si  tau(  19) = (   5.1312678  10.2625355   5.1312678  )
        20           Si  tau(  20) = (   5.1312678  10.2625355  15.3938033  )
        21           Si  tau(  21) = (  15.3938033   0.0000000   5.1312678  )
        22           Si  tau(  22) = (  15.3938033   0.0000000  15.3938033  )
        23           Si  tau(  23) = (  15.3938033  10.2625355   5.1312678  )
        24           Si  tau(  24) = (  15.3938033  10.2625355  15.3938033  )
        25           Si  tau(  25) = (   5.1312678   5.1312678   0.0000000  )
        26           Si  tau(  26) = (   5.1312678   5.1312678  10.2625355  )
        27           Si  tau(  27) = (   5.1312678  15.3938033   0.0000000  )
        28           Si  tau(  28) = (   5.1312678  15.3938033  10.2625355  )
        29           Si  tau(  29) = (  15.3938033   5.1312678   0.0000000  )
        30           Si  tau(  30) = (  15.3938033   5.1312678  10.2625355  )
        31           Si  tau(  31) = (  15.3938033  15.3938033   0.0000000  )
        32           Si  tau(  32) = (  15.3938033  15.3938033  10.2625355  )
        33           Si  tau(  33) = (   7.6969016   7.6969016   2.5656339  )
        34           Si  tau(  34) = (   7.6969016   7.6969016  12.8281694  )
        35           Si  tau(  35) = (   7.6969016  17.9594371   2.5656339  )
        36           Si  tau(  36) = (   7.6969016  17.9594371  12.8281694  )
        37           Si  tau(  37) = (  17.9594371   7.6969016   2.5656339  )
        38           Si  tau(  38) = (  17.9594371   7.6969016  12.8281694  )
        39           Si  tau(  39) = (  17.9594371  17.9594371   2.5656339  )
        40           Si  tau(  40) = (  17.9594371  17.9594371  12.8281694  )
        41           Si  tau(  41) = (   7.6969016   2.5656339   7.6969016  )
        42           Si  tau(  42) = (   7.6969016   2.5656339  17.9594371  )
        43           Si  tau(  43) = (   7.6969016  12.8281694   7.6969016  )
        44           Si  tau(  44) = (   7.6969016  12.8281694  17.9594371  )
        45           Si  tau(  45) = (  17.9594371   2.5656339   7.6969016  )
        46           Si  tau(  46) = (  17.9594371   2.5656339  17.9594371  )
        47           Si  tau(  47) = (  17.9594371  12.8281694   7.6969016  )
        48           Si  tau(  48) = (  17.9594371  12.8281694  17.9594371  )
        49           Si  tau(  49) = (   2.5656339   7.6969016   7.6969016  )
        50           Si  tau(  50) = (   2.5656339   7.6969016  17.9594371  )
        51           Si  tau(  51) = (   2.5656339  17.9594371   7.6969016  )
        52           Si  tau(  52) = (   2.5656339  17.9594371  17.9594371  )
        53           Si  tau(  53) = (  12.8281694   7.6969016   7.6969016  )
        54           Si  tau(  54) = (  12.8281694   7.6969016  17.9594371  )
        55           Si  tau(  55) = (  12.8281694  17.9594371   7.6969016  )
        56           Si  tau(  56) = (  12.8281694  17.9594371  17.9594371  )
        57           Si  tau(  57) = (   2.5656339   2.5656339   2.5656339  )
        58           Si  tau(  58) = (   2.5656339   2.5656339  12.8281694  )
        59           Si  tau(  59) = (   2.5656339  12.8281694   2.5656339  )
        60           Si  tau(  60) = (   2.5656339  12.8281694  12.8281694  )
        61           Si  tau(  61) = (  12.8281694   2.5656339   2.5656339  )
        62           Si  tau(  62) = (  12.8281694   2.5656339  12.8281694  )
        63           Si  tau(  63) = (  12.8281694  12.8281694   2.5656339  )
        64           Si  tau(  64) = (  12.8281694  12.8281694  12.8281694  )

   Crystallographic axes

     site n.     atom                  positions (cryst. coord.)
         1           Ge  tau(   1) = (  0.0000000  0.0000000  0.0000000  )
         2           Si  tau(   2) = (  0.0000000  0.0000000  0.5000000  )
         3           Si  tau(   3) = (  0.0000000  0.5000000  0.0000000  )
         4           Si  tau(   4) = (  0.0000000  0.5000000  0.5000000  )
         5           Si  tau(   5) = (  0.5000000  0.0000000  0.0000000  )
         6           Si  tau(   6) = (  0.5000000  0.0000000  0.5000000  )
         7           Si  tau(   7) = (  0.5000000  0.5000000  0.0000000  )
         8           Si  tau(   8) = (  0.5000000  0.5000000  0.5000000  )
         9           Si  tau(   9) = (  0.0000000  0.2500000  0.2500000  )
        10           Si  tau(  10) = (  0.0000000  0.2500000  0.7500000  )
        11           Si  tau(  11) = (  0.0000000  0.7500000  0.2500000  )
        12           Si  tau(  12) = (  0.0000000  0.7500000  0.7500000  )
        13           Si  tau(  13) = (  0.5000000  0.2500000  0.2500000  )
        14           Si  tau(  14) = (  0.5000000  0.2500000  0.7500000  )
        15           Si  tau(  15) = (  0.5000000  0.7500000  0.2500000  )
        16           Si  tau(  16) = (  0.5000000  0.7500000  0.7500000  )
        17           Si  tau(  17) = (  0.2500000  0.0000000  0.2500000  )
        18           Si  tau(  18) = (  0.2500000  0.0000000  0.7500000  )
        19           Si  tau(  19) = (  0.2500000  0.5000000  0.2500000  )
        20           Si  tau(  20) = (  0.2500000  0.5000000  0.7500000  )
        21           Si  tau(  21) = (  0.7500000  0.0000000  0.2500000  )
        22           Si  tau(  22) = (  0.7500000  0.0000000  0.7500000  )
        23           Si  tau(  23) = (  0.7500000  0.5000000  0.2500000  )
        24           Si  tau(  24) = (  0.7500000  0.5000000  0.7500000  )
        25           Si  tau(  25) = (  0.2500000  0.2500000  0.0000000  )
[...]
sirius::Density::generate_rho_aug|sum                             :    196     0.5144     0.0016     0.0033     0.0026     100.00
sirius::Density::generate_valence                                 :     98    23.0565     0.2256     0.2670     0.2353      10.64
sirius::Density::initial_density                                  :      7     0.5600     0.0649     0.0993     0.0800       3.16
sirius::Forces_PS::calc_ewald_forces                              :      7     0.0462     0.0051     0.0101     0.0066     100.00
sirius::Forces_PS::calc_local_forces                              :      7     1.5563     0.2135     0.2711     0.2223       6.59
sirius::Forces_PS::calc_nlcc_force                                :      7     0.3823     0.0539     0.0553     0.0546      11.83
sirius::Forces_PS::calc_nonlocal_forces                           :      7     2.6391     0.3738     0.3805     0.3770       6.57
sirius::Forces_PS::calc_scf_corr_forces                           :      7     0.2787     0.0395     0.0409     0.0398       7.85
sirius::Forces_PS::calc_ultrasoft_forces                          :      7     0.2198     0.0302     0.0365     0.0314      68.51
sirius::K_point::generate_gkvec                                   :      7     0.1289     0.0061     0.0303     0.0184      67.43
sirius::K_point::initialize                                       :      7     0.1693     0.0113     0.0397     0.0242       2.78
sirius::Local_operator::apply_h                                   :    468    46.7218     0.0064     0.3691     0.0998      15.40
sirius::Local_operator::prepare                                   :    210     2.9695     0.0012     0.0996     0.0141      32.75
sirius::Non_local_operator::apply                                 :    936    30.3239     0.0022     0.0923     0.0324     100.00
sirius::Periodic_function::inner                                  :    329     0.4057     0.0004     0.0041     0.0012      58.65
sirius::Potential::Potential                                      :      7     1.8607     0.2413     0.2934     0.2658       2.25
sirius::Potential::generate_D_operator_matrix                     :    105     0.7987     0.0060     0.0322     0.0076     100.00
sirius::Potential::generate_local_potential                       :      7     1.8188     0.2319     0.2902     0.2598       0.04
sirius::Radial_integrals|aug                                      :     14     0.4388     0.0216     0.0481     0.0313     100.00
sirius::Radial_integrals|beta                                     :     14     2.5570     0.1756     0.1908     0.1826     100.00
sirius::Radial_integrals|rho_core_pseudo                          :     49     1.9575     0.0376     0.0432     0.0399     100.00
sirius::Radial_integrals|rho_pseudo                               :     14     0.5145     0.0366     0.0371     0.0367     100.00
sirius::Radial_integrals|vloc                                     :     28     6.1436     0.2072     0.2549     0.2194     100.00
sirius::Simulation_context::initialize                            :      7     5.4234     0.7579     0.8342     0.7748       0.00
sirius::Simulation_context_base::initialize                       :      7     3.8790     0.5361     0.6153     0.5541       6.17
sirius::Simulation_context_base::make_periodic_function           :     42     0.1335     0.0022     0.0043     0.0032     100.00
sirius::Smooth_periodic_function::fft_transform                   :    483     6.8316     0.0053     0.0782     0.0141      41.40
sirius::Smooth_periodic_function::gather_f_pw                     :    322     3.6341     0.0042     0.0882     0.0113     100.00
sirius::Stress|ewald                                              :      7     0.0500     0.0067     0.0073     0.0071     100.00
sirius::Stress|kin                                                :      7     0.0631     0.0082     0.0099     0.0090     100.00
sirius::Stress|nonloc                                             :      7     6.2138     0.8816     0.8949     0.8877       6.49
sirius::Stress|us                                                 :      7     2.4131     0.3304     0.3578     0.3447      14.70
sirius::Stress|us|gemm                                            :    126     0.1471     0.0002     0.0022     0.0012     100.00
sirius::Stress|us|prepare                                         :    126     0.0380     0.0001     0.0008     0.0003     100.00
sirius::Stress|vloc                                               :      7     3.3067     0.4715     0.4734     0.4724       0.52
sirius::Unit_cell::find_nearest_neighbours                        :      7     0.0228     0.0031     0.0035     0.0033     100.00
sirius::Unit_cell::initialize                                     :      7     0.0444     0.0055     0.0104     0.0063       1.44
sirius_api::sirius_get_pw_coeffs                                  :    119     1.7504     0.0103     0.0238     0.0147      17.28
sirius_api::sirius_set_pw_coeffs                                  :    231     5.9734     0.0084     0.0738     0.0259      40.63
+global_timer (  284.3894s, 0.00 % of self, 100.00 % of total)
|--qe|run_pwscf (  284.3882s, 100.00 %)
qe|electrons (  254.5310s, 0.00 % of self, 89.50 % of total)
|--qe|electrons|scf (  243.0855s, 95.50 %)
|--qe|electrons|init (   11.2395s, 4.42 %)
|--sirius_api::sirius_set_pw_coeffs (    0.2058s, 0.08 %)
qe|electrons|init (   11.2395s, 2.63 % of self, 3.95 % of total)
|--sirius::Band::initialize_subspace (    6.6026s, 58.74 %)
|--sirius::Potential::Potential (    1.8607s, 16.56 %)
|--sirius_api::sirius_set_pw_coeffs (    0.7005s, 6.23 %)
|--sirius::Density::generate_pseudo_core_charge_density (    0.6213s, 5.53 %)
|--sirius::Density::initial_density (    0.5600s, 4.98 %)
|--sirius_api::sirius_get_pw_coeffs (    0.3724s, 3.31 %)
|--sirius::Potential::generate_D_operator_matrix (    0.0845s, 0.75 %)
|--qe|v_ha (    0.0632s, 0.56 %)
|--qe|v_xc (    0.0402s, 0.36 %)
|--sirius::DFT_ground_state::ewald_energy (    0.0385s, 0.34 %)
|--sirius::Band::Band (    0.0000s, 0.00 %)
qe|electrons|scf (  243.0855s, 0.87 % of self, 85.48 % of total)
|--sirius::Band::solve_for_kset (  203.2992s, 83.63 %)
|--sirius::Density::generate_valence (   23.0565s, 9.48 %)
|--qe|veff (    8.2532s, 3.40 %)
|--qe|mix (    3.4234s, 1.41 %)
|--sirius_api::sirius_get_pw_coeffs (    1.3780s, 0.57 %)
|--sirius::Smooth_periodic_function::fft_transform (    1.3357s, 0.55 %)
|--sirius::Periodic_function::inner (    0.2195s, 0.09 %)
qe|run_pwscf (  284.3882s, 0.20 % of self, 100.00 % of total)
|--qe|run_pwscf|electrons (  254.5311s, 89.50 %)
|--qe|run_pwscf|stress (   13.8179s, 4.86 %)
|--qe|run_pwscf|setup_sirius (    5.6262s, 1.98 %)
|--qe|run_pwscf|forces (    5.4851s, 1.93 %)
|--qe|run_pwscf|init_run (    3.1920s, 1.12 %)
|--qe|run_pwscf|ions (    1.0441s, 0.37 %)
|--qe|run_pwscf|hinit1 (    0.1036s, 0.04 %)
|--qe|run_pwscf|setup (    0.0316s, 0.01 %)
|--qe|run_pwscf|punch (    0.0000s, 0.00 %)
qe|run_pwscf|electrons (  254.5311s, 0.00 % of self, 89.50 % of total)
|--qe|electrons (  254.5310s, 100.00 %)
qe|run_pwscf|forces (    5.4851s, 2.76 % of self, 1.93 % of total)
|--sirius::Forces_PS::calc_nonlocal_forces (    2.6391s, 48.11 %)
|--sirius::Forces_PS::calc_local_forces (    1.5563s, 28.37 %)
|--sirius::Forces_PS::calc_nlcc_force (    0.3823s, 6.97 %)
|--sirius::Forces_PS::calc_scf_corr_forces (    0.2787s, 5.08 %)
|--sirius::Forces_PS::calc_ultrasoft_forces (    0.2198s, 4.01 %)
|--sirius_api::sirius_set_pw_coeffs (    0.2114s, 3.85 %)
|--sirius::Forces_PS::calc_ewald_forces (    0.0462s, 0.84 %)
qe|run_pwscf|init_run (    3.1920s, 51.43 % of self, 1.12 % of total)
|--qe|init_run|hinit0 (    1.5503s, 48.57 %)
|--qe|init_run|potinit (    0.0000s, 0.00 %)
|--qe|init_run|newd (    0.0000s, 0.00 %)
qe|run_pwscf|setup_sirius (    5.6262s, 0.59 % of self, 1.98 % of total)
|--sirius::Simulation_context::initialize (    5.4234s, 96.40 %)
|--sirius::K_point::initialize (    0.1693s, 3.01 %)
|--sirius::K_point_set::add_kpoints (    0.0004s, 0.01 %)
|--sirius::K_point_set::K_point_set (    0.0000s, 0.00 %)
qe|run_pwscf|stress (   13.8179s, 0.09 % of self, 4.86 % of total)
|--sirius::Stress|nonloc (    6.2138s, 44.97 %)
|--sirius::Stress|vloc (    3.3067s, 23.93 %)
|--sirius::Stress|us (    2.4131s, 17.46 %)
|--qe|stress_xc (    1.3581s, 9.83 %)
|--sirius::Radial_integrals|rho_core_pseudo (    0.3003s, 2.17 %)
|--sirius::Stress|kin (    0.0631s, 0.46 %)
|--sirius::Smooth_periodic_function::fft_transform (    0.0628s, 0.45 %)
|--sirius::Stress|ewald (    0.0500s, 0.36 %)
|--sirius::Periodic_function::inner (    0.0184s, 0.13 %)
|--sirius::Simulation_context_base::make_periodic_function (    0.0163s, 0.12 %)
|--sirius::Stress|har (    0.0022s, 0.02 %)
qe|veff (    8.2532s, 16.53 % of self, 2.90 % of total)
|--sirius_api::sirius_set_pw_coeffs (    4.8557s, 58.83 %)
|--qe|v_ha (    0.7847s, 9.51 %)
|--sirius::Potential::generate_D_operator_matrix (    0.7141s, 8.65 %)
|--qe|v_xc (    0.5346s, 6.48 %)
sddk::FFT3D::transform (   41.0761s, 0.33 % of self, 14.44 % of total)
|--sddk::FFT3D::transform_xy (   34.0656s, 82.93 %)
|--sddk::FFT3D::transform_z (    6.8736s, 16.73 %)
sddk::FFT3D::transform_z (    6.8736s, 0.65 % of self, 2.42 % of total)
|--sddk::FFT3D::transform_z_serial (    4.4695s, 65.02 %)
|--sddk::FFT3D::transform_z|comm (    2.3597s, 34.33 %)
sddk::wave_functions::orthogonalize (   19.7924s, 4.23 % of self, 6.96 % of total)
|--sddk::wave_functions::transform (   12.4880s, 63.10 %)
|--sddk::wave_functions::inner (    6.0385s, 30.51 %)
|--sddk::wave_functions::orthogonalize|potrf (    0.2790s, 1.41 %)
|--sddk::wave_functions::orthogonalize|trtri (    0.1501s, 0.76 %)
sddk::wave_functions::transform (   22.7970s, 93.90 % of self, 8.02 % of total)
|--sddk::wave_functions::transform|init (    1.3916s, 6.10 %)
sirius::Band::apply_h_o (  111.0519s, 0.58 % of self, 39.05 % of total)
|--sirius::Local_operator::apply_h (   46.7218s, 42.07 %)
|--sirius::Non_local_operator::apply (   30.3239s, 27.31 %)
|--sirius::Beta_projectors_base::generate (   17.2423s, 15.53 %)
|--sirius::Beta_projectors_base::inner (   16.1230s, 14.52 %)
sirius::Band::diag_pseudo_potential (  167.0555s, 0.06 % of self, 58.74 % of total)
|--sirius::Band::diag_pseudo_potential_davidson (  166.8040s, 99.85 %)
|--sirius::Local_operator::prepare (    0.1373s, 0.08 %)
|--sddk::FFT3D::prepare (    0.0065s, 0.00 %)
|--sirius::Non_local_operator::Non_local_operator (    0.0004s, 0.00 %)
sirius::Band::diag_pseudo_potential_davidson (  166.8040s, 0.06 % of self, 58.65 % of total)
|--sirius::Band::diag_pseudo_potential_davidson|iter (  165.4440s, 99.18 %)
|--sirius::Band::get_h_diag (    0.6119s, 0.37 %)
|--sirius::Band::get_o_diag (    0.5853s, 0.35 %)
|--sirius::Band::diag_pseudo_potential_davidson|alloc (    0.0594s, 0.04 %)
|--sirius::Band::diag_pseudo_potential_davidson|wf (    0.0020s, 0.00 %)
|--sirius::Beta_projectors_base::dismiss (    0.0000s, 0.00 %)
sirius::Band::diag_pseudo_potential_davidson|evp (   21.0505s, 0.13 % of self, 7.40 % of total)
|--Eigenproblem_elpa1|diag (   20.3830s, 96.83 %)
|--Eigenproblem_elpa:transform_to_standard (    0.5116s, 2.43 %)
|--Eigenproblem_elpa:transform_back (    0.1286s, 0.61 %)
sirius::Band::diag_pseudo_potential_davidson|iter (  165.4440s, 0.34 % of self, 58.18 % of total)
|--sirius::Band::apply_h_o (  106.5393s, 64.40 %)
|--sirius::Band::diag_pseudo_potential_davidson|evp (   21.0505s, 12.72 %)
|--sddk::wave_functions::orthogonalize (   19.7924s, 11.96 %)
|--sirius::Band::residuals (    7.7467s, 4.68 %)
|--sirius::Band::set_subspace_mtrx (    6.2287s, 3.76 %)
|--sirius::Band::diag_pseudo_potential_davidson|update_phi (    3.5208s, 2.13 %)
sirius::Band::diag_pseudo_potential_davidson|update_phi (    3.5208s, 1.61 % of self, 1.24 % of total)
|--sddk::wave_functions::transform (    3.4640s, 98.39 %)
sirius::Band::initialize_subspace (    6.6026s, 7.92 % of self, 2.32 % of total)
|--sirius::Band::initialize_subspace|kp (    5.8546s, 88.67 %)
|--sirius::Local_operator::prepare (    0.2253s, 3.41 %)
sirius::Band::initialize_subspace|kp (    5.8546s, 0.92 % of self, 2.06 % of total)
|--sirius::Band::apply_h_o (    4.5126s, 77.08 %)
|--sirius::Band::set_subspace_mtrx (    0.4120s, 7.04 %)
|--Eigenproblem_elpa1|diag (    0.2494s, 4.26 %)
|--Eigenproblem_elpa:transform_to_standard (    0.2226s, 3.80 %)
|--sddk::matrix_storage::matrix_storage (    0.1554s, 2.65 %)
|--sddk::wave_functions::transform (    0.1228s, 2.10 %)
|--sirius::Band::initialize_subspace|kp|wf (    0.0976s, 1.67 %)
|--Eigenproblem_elpa:transform_back (    0.0178s, 0.30 %)
|--sirius::Local_operator::prepare (    0.0107s, 0.18 %)
|--sddk::FFT3D::prepare (    0.0001s, 0.00 %)
|--sirius::Non_local_operator::Non_local_operator (    0.0000s, 0.00 %)
|--sirius::Beta_projectors_base::prepare (    0.0000s, 0.00 %)
|--sirius::Beta_projectors_base::dismiss (    0.0000s, 0.00 %)
sirius::Band::residuals (    7.7467s, 1.11 % of self, 2.72 % of total)
|--sddk::wave_functions::transform (    6.7222s, 86.77 %)
|--sirius::Band::residuals_aux (    0.9382s, 12.11 %)
sirius::Band::set_subspace_mtrx (    6.6407s, 0.60 % of self, 2.34 % of total)
|--sddk::wave_functions::inner (    6.6010s, 99.40 %)
sirius::Band::solve_for_kset (  203.2992s, 16.55 % of self, 71.49 % of total)
|--sirius::Band::diag_pseudo_potential (  167.0555s, 82.17 %)
|--sirius::Local_operator::prepare (    2.5962s, 1.28 %)
|--sirius::K_point_set::sync_band_energies (    0.0048s, 0.00 %)
sirius::Density::add_k_point_contribution_dm (    8.4904s, 0.34 % of self, 2.99 % of total)
|--sirius::Beta_projectors_base::inner (    5.1418s, 60.56 %)
|--sirius::Beta_projectors_base::generate (    3.3197s, 39.10 %)
|--sirius::Beta_projectors_base::prepare (    0.0001s, 0.00 %)
|--sirius::Beta_projectors_base::dismiss (    0.0000s, 0.00 %)
sirius::Density::add_k_point_contribution_rg (    7.5955s, 29.82 % of self, 2.67 % of total)
|--sddk::FFT3D::transform (    5.3293s, 70.16 %)
|--sddk::FFT3D::prepare (    0.0015s, 0.02 %)
sirius::Density::generate_valence (   23.0565s, 10.64 % of self, 8.11 % of total)
|--sirius::Density::add_k_point_contribution_dm (    8.4904s, 36.82 %)
|--sirius::Density::add_k_point_contribution_rg (    7.5955s, 32.94 %)
|--sddk::matrix_storage::remap_forward (    2.1367s, 9.27 %)
|--sirius::Density::augment (    1.0920s, 4.74 %)
|--sirius::Smooth_periodic_function::fft_transform (    0.6622s, 2.87 %)
|--sirius::Smooth_periodic_function::gather_f_pw (    0.6188s, 2.68 %)
|--sddk::FFT3D::prepare (    0.0077s, 0.03 %)
sirius::Local_operator::apply_h (   46.7218s, 15.40 % of self, 16.43 % of total)
|--sddk::FFT3D::transform (   31.3163s, 67.03 %)
|--sddk::matrix_storage::remap_forward (    4.2474s, 9.09 %)
|--sddk::matrix_storage::remap_backward (    3.9622s, 8.48 %)
sirius::Local_operator::prepare (    2.9695s, 32.75 % of self, 1.04 % of total)
|--sirius::Smooth_periodic_function::gather_f_pw (    1.5673s, 52.78 %)
|--sddk::FFT3D::transform (    0.4271s, 14.38 %)
|--sddk::FFT3D::prepare (    0.0027s, 0.09 %)
sirius::Simulation_context::initialize (    5.4234s, 0.00 % of self, 1.91 % of total)
|--sirius::Simulation_context_base::initialize (    3.8790s, 71.52 %)
|--sirius::Augmentation_operator::generate_pw_coeffs (    1.5441s, 28.47 %)
sirius::Simulation_context_base::initialize (    3.8790s, 6.17 % of self, 1.36 % of total)
|--sirius::Radial_integrals|beta (    2.5570s, 65.92 %)
|--sddk::Gvec::init (    0.6508s, 16.78 %)
|--sirius::Radial_integrals|aug (    0.2542s, 6.55 %)
|--sddk::remap_gvec_to_shells|init (    0.0952s, 2.45 %)
|--sirius::Unit_cell::initialize (    0.0444s, 1.14 %)
|--sddk::FFT3D::FFT3D (    0.0377s, 0.97 %)
|--sddk::FFT3D::prepare (    0.0005s, 0.01 %)
sirius::Smooth_periodic_function::fft_transform (    6.8316s, 41.40 % of self, 2.40 % of total)
|--sddk::FFT3D::transform (    4.0033s, 58.60 %)
sirius::Stress|nonloc (    6.2138s, 6.49 % of self, 2.18 % of total)
|--sirius::Beta_projectors_base::inner (    3.2743s, 52.69 %)
|--sirius::Beta_projectors_base::generate (    2.3907s, 38.47 %)
|--sirius::Beta_projectors_strain_deriv::generate_pw_coefs_t (    0.1453s, 2.34 %)
|--sirius::Beta_projectors_base::dismiss (    0.0000s, 0.00 %)
|--sirius::Beta_projectors_base::prepare (    0.0000s, 0.00 %)
sirius::Stress|vloc (    3.3067s, 0.52 % of self, 1.16 % of total)
|--sirius::Radial_integrals|vloc (    3.2333s, 97.78 %)
|--sirius::Simulation_context_base::make_periodic_function (    0.0562s, 1.70 %)
sirius_api::sirius_set_pw_coeffs (    5.9734s, 40.63 % of self, 2.10 % of total)
|--sirius::Smooth_periodic_function::fft_transform (    3.5467s, 59.37 %)

     General routines

     Parallel routines

   This run was terminated on:  11:11:44  25Sep2017

   JOB DONE.