     Program PWSCF v.6.1 starts on 25Sep2017 at 11: 1:29

     Current dimensions of program PWSCF are:
     Max number of different atomic species (ntypx) = 10
     Max number of k-points (npk) =  40000
     Max angular momentum in pseudopotentials (lmaxx) =  3

     Subspace diagonalization in iterative solution of the eigenvalue problem:
     one sub-group per band group will be used

   Info: using nr1, nr2, nr3 values from input

     bravais-lattice index     =            0
     lattice parameter (alat)  =       1.0000  a.u.
     unit-cell volume          =    8646.7719 (a.u.)^3
     number of atoms/cell      =           64
     number of atomic types    =            2
     number of electrons       =       266.00
     number of Kohn-Sham states=          160
     kinetic-energy cutoff     =      40.0000  Ry
     charge density cutoff     =     300.0000  Ry
     convergence threshold     =      1.0E-10
     mixing beta               =       0.7000
     number of iterations used =            8  plain     mixing
     Exchange-correlation      = SLA  PZ   NOGX NOGC ( 1  1  0  0 0 0)
     nstep                     =          100

     celldm(1)=   1.000000  celldm(2)=   0.000000  celldm(3)=   0.000000
     celldm(4)=   0.000000  celldm(5)=   0.000000  celldm(6)=   0.000000

     crystal axes: (cart. coord. in units of alat)
               a(1) = (  20.525071   0.000000   0.000000 )
               a(2) = (   0.000000  20.525071   0.000000 )
               a(3) = (   0.000000   0.000000  20.525071 )

     reciprocal axes: (cart. coord. in units 2 pi/alat)
               b(1) = (  0.048721  0.000000  0.000000 )
               b(2) = (  0.000000  0.048721  0.000000 )
               b(3) = (  0.000000  0.000000  0.048721 )

     PseudoPot. # 1 for Ge read from file:
     ./ge_lda_v1.uspp.F.UPF
     MD5 check sum: 575f587c0f86b3eee266efe92ef02c15
     Pseudo is Ultrasoft + core correction, Zval = 14.0
     Generated by new atomic code, or converted to UPF format
     Using radial grid of  873 points,  6 beta functions with:
                l(1) =   0
                l(2) =   0
                l(3) =   1
                l(4) =   1
                l(5) =   2
                l(6) =   2
     Q(r) pseudized with  8 coefficients,  rinner =    1.400   1.400   1.400
                                                       1.400   1.400

     PseudoPot. # 2 for Si read from file:
     ./si_lda_v1.uspp.F.UPF
     MD5 check sum: ca10e49b2835512e91ee5100d37237e0
     Pseudo is Ultrasoft + core correction, Zval =  4.0
     Generated by new atomic code, or converted to UPF format
     Using radial grid of  899 points,  6 beta functions with:
                l(1) =   0
                l(2) =   0
                l(3) =   1
                l(4) =   1
                l(5) =   2
                l(6) =   2
     Q(r) pseudized with  8 coefficients,  rinner =    0.900   0.900   0.900
                                                       0.900   0.900

     atomic species   valence    mass     pseudopotential
        Ge            14.00    72.61000     Ge( 1.00)
        Si             4.00    28.08550     Si( 1.00)

     24 Sym. Ops. (no inversion) found

                                    s                        frac. trans.

      isym =  1     identity

 cryst.   s( 1) = (     1          0          0      )
                  (     0          1          0      )
                  (     0          0          1      )

 cart.    s( 1) = (  1.0000000  0.0000000  0.0000000 )
                  (  0.0000000  1.0000000  0.0000000 )
                  (  0.0000000  0.0000000  1.0000000 )

      isym =  2     180 deg rotation - cart. axis [0,0,1]

[...]

 cryst.   s(10) = (     0         -1          0      )
                  (     0          0         -1      )
                  (     1          0          0      )

 cart.    s(10) = (  0.0000000  0.0000000  1.0000000 )
                  ( -1.0000000  0.0000000  0.0000000 )
                  (  0.0000000 -1.0000000  0.0000000 )

[...]

      isym = 13     inv. 180 deg rotation - cart. axis [1,1,0]

[...]

   Cartesian axes

     site n.     atom                  positions (a.u.)
         1           Ge  tau(   1) = (   0.0000000   0.0000000   0.0000000  )
         2           Si  tau(   2) = (   0.0000000   0.0000000  10.2625355  )
         3           Si  tau(   3) = (   0.0000000  10.2625355   0.0000000  )
         4           Si  tau(   4) = (   0.0000000  10.2625355  10.2625355  )
         5           Si  tau(   5) = (  10.2625355   0.0000000   0.0000000  )
         6           Si  tau(   6) = (  10.2625355   0.0000000  10.2625355  )
         7           Si  tau(   7) = (  10.2625355  10.2625355   0.0000000  )
         8           Si  tau(   8) = (  10.2625355  10.2625355  10.2625355  )
         9           Si  tau(   9) = (   0.0000000   5.1312678   5.1312678  )
        10           Si  tau(  10) = (   0.0000000   5.1312678  15.3938033  )
        11           Si  tau(  11) = (   0.0000000  15.3938033   5.1312678  )
        12           Si  tau(  12) = (   0.0000000  15.3938033  15.3938033  )
        13           Si  tau(  13) = (  10.2625355   5.1312678   5.1312678  )
        14           Si  tau(  14) = (  10.2625355   5.1312678  15.3938033  )
        15           Si  tau(  15) = (  10.2625355  15.3938033   5.1312678  )
        16           Si  tau(  16) = (  10.2625355  15.3938033  15.3938033  )
        17           Si  tau(  17) = (   5.1312678   0.0000000   5.1312678  )
        18           Si  tau(  18) = (   5.1312678   0.0000000  15.3938033  )
        19           Si  tau(  19) = (   5.1312678  10.2625355   5.1312678  )
        20           Si  tau(  20) = (   5.1312678  10.2625355  15.3938033  )
        21           Si  tau(  21) = (  15.3938033   0.0000000   5.1312678  )
        22           Si  tau(  22) = (  15.3938033   0.0000000  15.3938033  )
        23           Si  tau(  23) = (  15.3938033  10.2625355   5.1312678  )
        24           Si  tau(  24) = (  15.3938033  10.2625355  15.3938033  )
        25           Si  tau(  25) = (   5.1312678   5.1312678   0.0000000  )
        26           Si  tau(  26) = (   5.1312678   5.1312678  10.2625355  )
        27           Si  tau(  27) = (   5.1312678  15.3938033   0.0000000  )
        28           Si  tau(  28) = (   5.1312678  15.3938033  10.2625355  )
        29           Si  tau(  29) = (  15.3938033   5.1312678   0.0000000  )
        30           Si  tau(  30) = (  15.3938033   5.1312678  10.2625355  )
        31           Si  tau(  31) = (  15.3938033  15.3938033   0.0000000  )
        32           Si  tau(  32) = (  15.3938033  15.3938033  10.2625355  )
        33           Si  tau(  33) = (   7.6969016   7.6969016   2.5656339  )
        34           Si  tau(  34) = (   7.6969016   7.6969016  12.8281694  )
        35           Si  tau(  35) = (   7.6969016  17.9594371   2.5656339  )
        36           Si  tau(  36) = (   7.6969016  17.9594371  12.8281694  )
        37           Si  tau(  37) = (  17.9594371   7.6969016   2.5656339  )
        38           Si  tau(  38) = (  17.9594371   7.6969016  12.8281694  )
        39           Si  tau(  39) = (  17.9594371  17.9594371   2.5656339  )
        40           Si  tau(  40) = (  17.9594371  17.9594371  12.8281694  )
        41           Si  tau(  41) = (   7.6969016   2.5656339   7.6969016  )
        42           Si  tau(  42) = (   7.6969016   2.5656339  17.9594371  )
        43           Si  tau(  43) = (   7.6969016  12.8281694   7.6969016  )
        44           Si  tau(  44) = (   7.6969016  12.8281694  17.9594371  )
        45           Si  tau(  45) = (  17.9594371   2.5656339   7.6969016  )
        46           Si  tau(  46) = (  17.9594371   2.5656339  17.9594371  )
        47           Si  tau(  47) = (  17.9594371  12.8281694   7.6969016  )
        48           Si  tau(  48) = (  17.9594371  12.8281694  17.9594371  )
        49           Si  tau(  49) = (   2.5656339   7.6969016   7.6969016  )
        50           Si  tau(  50) = (   2.5656339   7.6969016  17.9594371  )
        51           Si  tau(  51) = (   2.5656339  17.9594371   7.6969016  )
        52           Si  tau(  52) = (   2.5656339  17.9594371  17.9594371  )
        53           Si  tau(  53) = (  12.8281694   7.6969016   7.6969016  )
        54           Si  tau(  54) = (  12.8281694   7.6969016  17.9594371  )
        55           Si  tau(  55) = (  12.8281694  17.9594371   7.6969016  )
        56           Si  tau(  56) = (  12.8281694  17.9594371  17.9594371  )
        57           Si  tau(  57) = (   2.5656339   2.5656339   2.5656339  )
        58           Si  tau(  58) = (   2.5656339   2.5656339  12.8281694  )
        59           Si  tau(  59) = (   2.5656339  12.8281694   2.5656339  )
        60           Si  tau(  60) = (   2.5656339  12.8281694  12.8281694  )
        61           Si  tau(  61) = (  12.8281694   2.5656339   2.5656339  )
        62           Si  tau(  62) = (  12.8281694   2.5656339  12.8281694  )
        63           Si  tau(  63) = (  12.8281694  12.8281694   2.5656339  )
        64           Si  tau(  64) = (  12.8281694  12.8281694  12.8281694  )

   Crystallographic axes

     site n.     atom                  positions (cryst. coord.)
         1           Ge  tau(   1) = (  0.0000000  0.0000000  0.0000000  )
         2           Si  tau(   2) = (  0.0000000  0.0000000  0.5000000  )
         3           Si  tau(   3) = (  0.0000000  0.5000000  0.0000000  )
         4           Si  tau(   4) = (  0.0000000  0.5000000  0.5000000  )
         5           Si  tau(   5) = (  0.5000000  0.0000000  0.0000000  )
         6           Si  tau(   6) = (  0.5000000  0.0000000  0.5000000  )
         7           Si  tau(   7) = (  0.5000000  0.5000000  0.0000000  )
         8           Si  tau(   8) = (  0.5000000  0.5000000  0.5000000  )
         9           Si  tau(   9) = (  0.0000000  0.2500000  0.2500000  )
        10           Si  tau(  10) = (  0.0000000  0.2500000  0.7500000  )
        11           Si  tau(  11) = (  0.0000000  0.7500000  0.2500000  )
        12           Si  tau(  12) = (  0.0000000  0.7500000  0.7500000  )
        13           Si  tau(  13) = (  0.5000000  0.2500000  0.2500000  )
        14           Si  tau(  14) = (  0.5000000  0.2500000  0.7500000  )
        15           Si  tau(  15) = (  0.5000000  0.7500000  0.2500000  )
        16           Si  tau(  16) = (  0.5000000  0.7500000  0.7500000  )
        17           Si  tau(  17) = (  0.2500000  0.0000000  0.2500000  )
        18           Si  tau(  18) = (  0.2500000  0.0000000  0.7500000  )
        19           Si  tau(  19) = (  0.2500000  0.5000000  0.2500000  )
        20           Si  tau(  20) = (  0.2500000  0.5000000  0.7500000  )
        21           Si  tau(  21) = (  0.7500000  0.0000000  0.2500000  )
        22           Si  tau(  22) = (  0.7500000  0.0000000  0.7500000  )
        23           Si  tau(  23) = (  0.7500000  0.5000000  0.2500000  )
        24           Si  tau(  24) = (  0.7500000  0.5000000  0.7500000  )
        25           Si  tau(  25) = (  0.2500000  0.2500000  0.0000000  )
[...]
sirius::Forces_PS::calc_ultrasoft_forces                          :      7     0.2580     0.0364     0.0374     0.0369      42.74
sirius::K_point::generate_gkvec                                   :      7     0.0565     0.0077     0.0093     0.0081       5.18
sirius::K_point::initialize                                       :      7     0.0870     0.0120     0.0138     0.0124       1.31
sirius::Local_operator::apply_h                                   :    468    55.5124     0.0226     0.4202     0.1186      14.27
sirius::Local_operator::prepare                                   :    210     8.5567     0.0014     0.1650     0.0407      14.41
sirius::Non_local_operator::apply                                 :    936    31.5427     0.0020     0.0866     0.0337     100.00
sirius::Periodic_function::inner                                  :    329     0.7135     0.0007     0.0178     0.0022      58.92
sirius::Potential::Potential                                      :      7     6.2102     0.8647     0.9102     0.8872       0.28
sirius::Potential::generate_D_operator_matrix                     :    105     0.7697     0.0051     0.0145     0.0073     100.00
sirius::Potential::generate_local_potential                       :      7     6.1926     0.8590     0.9084     0.8847       0.01
sirius::Radial_integrals|aug                                      :     14     0.6848     0.0290     0.1468     0.0489     100.00
sirius::Radial_integrals|beta                                     :     14     8.4626     0.5770     0.6316     0.6045     100.00
sirius::Radial_integrals|rho_core_pseudo                          :     49     7.4227     0.1414     0.1648     0.1515     100.00
sirius::Radial_integrals|rho_pseudo                               :     14     1.9429     0.1382     0.1394     0.1388     100.00
sirius::Radial_integrals|vloc                                     :     28    24.3473     0.8229     1.0047     0.8695     100.00
sirius::Simulation_context::initialize                            :      7    12.2302     1.6568     2.1983     1.7472       0.01
sirius::Simulation_context_base::initialize                       :      7    10.5705     1.4191     1.9612     1.5101       4.85
sirius::Simulation_context_base::make_periodic_function           :     42     0.1341     0.0022     0.0043     0.0032     100.00
sirius::Smooth_periodic_function::fft_transform                   :    483    11.9143     0.0095     0.0945     0.0247      24.98
sirius::Smooth_periodic_function::gather_f_pw                     :    322    12.6296     0.0083     0.1388     0.0392     100.00
sirius::Stress|ewald                                              :      7     0.0378     0.0049     0.0057     0.0054     100.00
sirius::Stress|kin                                                :      7     0.0214     0.0020     0.0038     0.0031     100.00
sirius::Stress|nonloc                                             :      7     5.9823     0.8228     0.9724     0.8546      13.53
sirius::Stress|us                                                 :      7     2.5042     0.3223     0.5010     0.3577       7.56
sirius::Stress|us|gemm                                            :    126     0.1213     0.0001     0.0020     0.0010     100.00
sirius::Stress|us|prepare                                         :    126     0.0361     0.0001     0.0006     0.0003     100.00
sirius::Stress|vloc                                               :      7    12.8718     1.8307     1.8576     1.8388       0.27
sirius::Unit_cell::find_nearest_neighbours                        :      7     0.0858     0.0121     0.0125     0.0123     100.00
sirius::Unit_cell::initialize                                     :      7     0.1394     0.0194     0.0217     0.0199       0.62
sirius_api::sirius_get_pw_coeffs                                  :    119     5.9930     0.0349     0.0672     0.0504       1.38
sirius_api::sirius_set_pw_coeffs                                  :    231     9.9151     0.0182     0.0591     0.0429      45.17
+global_timer (  327.7916s, 0.00 % of self, 100.00 % of total)
|--qe|run_pwscf (  327.7903s, 100.00 %)
qe|electrons (  271.2432s, 0.00 % of self, 82.75 % of total)
|--qe|electrons|scf (  251.8362s, 92.85 %)
|--qe|electrons|init (   19.1085s, 7.04 %)
|--sirius_api::sirius_set_pw_coeffs (    0.2979s, 0.11 %)
qe|electrons|init (   19.1085s, 1.75 % of self, 5.83 % of total)
|--sirius::Band::initialize_subspace (    8.1861s, 42.84 %)
|--sirius::Potential::Potential (    6.2102s, 32.50 %)
|--sirius::Density::initial_density (    1.3508s, 7.07 %)
|--sirius::Density::generate_pseudo_core_charge_density (    1.1612s, 6.08 %)
|--sirius_api::sirius_get_pw_coeffs (    1.0348s, 5.42 %)
|--sirius_api::sirius_set_pw_coeffs (    0.6701s, 3.51 %)
|--sirius::Potential::generate_D_operator_matrix (    0.0512s, 0.27 %)
|--qe|v_xc (    0.0420s, 0.22 %)
|--qe|v_ha (    0.0379s, 0.20 %)
|--sirius::DFT_ground_state::ewald_energy (    0.0302s, 0.16 %)
|--sirius::Band::Band (    0.0000s, 0.00 %)
qe|electrons|scf (  251.8362s, 0.54 % of self, 76.83 % of total)
|--sirius::Band::solve_for_kset (  203.1967s, 80.69 %)
|--sirius::Density::generate_valence (   25.7334s, 10.22 %)
|--qe|veff (   11.2354s, 4.46 %)
|--sirius_api::sirius_get_pw_coeffs (    4.9581s, 1.97 %)
|--sirius::Smooth_periodic_function::fft_transform (    2.6020s, 1.03 %)
|--qe|mix (    2.3684s, 0.94 %)
|--sirius::Periodic_function::inner (    0.3914s, 0.16 %)
qe|run_pwscf (  327.7903s, 0.18 % of self, 100.00 % of total)
|--qe|run_pwscf|electrons (  271.2434s, 82.75 %)
|--qe|run_pwscf|stress (   27.1890s, 8.29 %)
|--qe|run_pwscf|setup_sirius (   12.3272s, 3.76 %)
|--qe|run_pwscf|forces (   11.3063s, 3.45 %)
|--qe|run_pwscf|init_run (    3.7280s, 1.14 %)
|--qe|run_pwscf|ions (    1.3052s, 0.40 %)
|--qe|run_pwscf|hinit1 (    0.0643s, 0.02 %)
|--qe|run_pwscf|setup (    0.0327s, 0.01 %)
|--qe|run_pwscf|punch (    0.0000s, 0.00 %)
qe|run_pwscf|electrons (  271.2434s, 0.00 % of self, 82.75 % of total)
|--qe|electrons (  271.2432s, 100.00 %)
qe|run_pwscf|forces (   11.3063s, 1.03 % of self, 3.45 % of total)
|--sirius::Forces_PS::calc_local_forces (    5.8506s, 51.75 %)
|--sirius::Forces_PS::calc_nonlocal_forces (    2.4318s, 21.51 %)
|--sirius::Forces_PS::calc_nlcc_force (    1.1873s, 10.50 %)
|--sirius::Forces_PS::calc_scf_corr_forces (    0.9938s, 8.79 %)
|--sirius_api::sirius_set_pw_coeffs (    0.4204s, 3.72 %)
|--sirius::Forces_PS::calc_ultrasoft_forces (    0.2580s, 2.28 %)
|--sirius::Forces_PS::calc_ewald_forces (    0.0478s, 0.42 %)
qe|run_pwscf|init_run (    3.7280s, 57.92 % of self, 1.14 % of total)
|--qe|init_run|hinit0 (    1.5688s, 42.08 %)
|--qe|init_run|potinit (    0.0000s, 0.00 %)
|--qe|init_run|newd (    0.0000s, 0.00 %)
qe|run_pwscf|setup_sirius (   12.3272s, 0.08 % of self, 3.76 % of total)
|--sirius::Simulation_context::initialize (   12.2302s, 99.21 %)
|--sirius::K_point::initialize (    0.0870s, 0.71 %)
|--sirius::K_point_set::add_kpoints (    0.0004s, 0.00 %)
|--sirius::K_point_set::K_point_set (    0.0000s, 0.00 %)
qe|run_pwscf|stress (   27.1890s, 0.18 % of self, 8.29 % of total)
|--sirius::Stress|vloc (   12.8718s, 47.34 %)
|--sirius::Stress|nonloc (    5.9823s, 22.00 %)
|--qe|stress_xc (    4.3944s, 16.16 %)
|--sirius::Stress|us (    2.5042s, 9.21 %)
|--sirius::Radial_integrals|rho_core_pseudo (    1.1466s, 4.22 %)
|--sirius::Smooth_periodic_function::fft_transform (    0.1335s, 0.49 %)
|--sirius::Stress|ewald (    0.0378s, 0.14 %)
|--sirius::Periodic_function::inner (    0.0290s, 0.11 %)
|--sirius::Stress|kin (    0.0214s, 0.08 %)
|--sirius::Simulation_context_base::make_periodic_function (    0.0172s, 0.06 %)
|--sirius::Stress|har (    0.0009s, 0.00 %)
qe|stress_xc (    4.3944s, 0.00 % of self, 1.34 % of total)
|--qe|stress_xc|cc (    4.3943s, 100.00 %)
|--qe|stress_xc|gradcorr (    0.0000s, 0.00 %)
qe|stress_xc|cc (    4.3943s, 2.20 % of self, 1.34 % of total)
|--qe|stres_cc|deriv_drhoc (    2.2980s, 52.29 %)
|--qe|stres_cc|drhoc (    1.9998s, 45.51 %)
qe|veff (   11.2354s, 8.30 % of self, 3.43 % of total)
|--sirius_api::sirius_set_pw_coeffs (    8.5268s, 75.89 %)
|--sirius::Potential::generate_D_operator_matrix (    0.7185s, 6.40 %)
|--qe|v_xc (    0.6047s, 5.38 %)
|--qe|v_ha (    0.4526s, 4.03 %)
sddk::FFT3D::transform (   54.6146s, 0.16 % of self, 16.66 % of total)
|--sddk::FFT3D::transform_xy (   44.6513s, 81.76 %)
|--sddk::FFT3D::transform_z (    9.8750s, 18.08 %)
sddk::FFT3D::transform_z (    9.8750s, 0.27 % of self, 3.01 % of total)
|--sddk::FFT3D::transform_z|comm (    5.1044s, 51.69 %)
|--sddk::FFT3D::transform_z_serial (    4.7436s, 48.04 %)
sddk::wave_functions::orthogonalize (   18.5141s, 1.98 % of self, 5.65 % of total)
|--sddk::wave_functions::transform (   13.2082s, 71.34 %)
|--sddk::wave_functions::inner (    4.3722s, 23.62 %)
|--sddk::wave_functions::orthogonalize|potrf (    0.3825s, 2.07 %)
|--sddk::wave_functions::orthogonalize|trtri (    0.1853s, 1.00 %)
sddk::wave_functions::transform (   23.5218s, 97.72 % of self, 7.18 % of total)
|--sddk::wave_functions::transform|init (    0.5370s, 2.28 %)
sirius::Band::apply_h_o (  111.8328s, 0.35 % of self, 34.12 % of total)
|--sirius::Local_operator::apply_h (   55.5124s, 49.64 %)
|--sirius::Non_local_operator::apply (   31.5427s, 28.21 %)
|--sirius::Beta_projectors_base::inner (   18.5585s, 16.59 %)
|--sirius::Beta_projectors_base::generate (    5.8329s, 5.22 %)
sirius::Band::diag_pseudo_potential (  166.2532s, 0.03 % of self, 50.72 % of total)
|--sirius::Band::diag_pseudo_potential_davidson (  166.0541s, 99.88 %)
|--sirius::Local_operator::prepare (    0.1457s, 0.09 %)
|--sddk::FFT3D::prepare (    0.0029s, 0.00 %)
|--sirius::Non_local_operator::Non_local_operator (    0.0006s, 0.00 %)
sirius::Band::diag_pseudo_potential_davidson (  166.0541s, 0.00 % of self, 50.66 % of total)
|--sirius::Band::diag_pseudo_potential_davidson|iter (  164.8629s, 99.28 %)
|--sirius::Band::get_h_diag (    0.5895s, 0.36 %)
|--sirius::Band::get_o_diag (    0.5595s, 0.34 %)
|--sirius::Band::diag_pseudo_potential_davidson|alloc (    0.0358s, 0.02 %)
|--sirius::Band::diag_pseudo_potential_davidson|wf (    0.0028s, 0.00 %)
|--sirius::Beta_projectors_base::dismiss (    0.0000s, 0.00 %)
sirius::Band::diag_pseudo_potential_davidson|evp (   22.2490s, 0.06 % of self, 6.79 % of total)
|--Eigenproblem_elpa1|diag (   21.4536s, 96.42 %)
|--Eigenproblem_elpa:transform_to_standard (    0.6628s, 2.98 %)
|--Eigenproblem_elpa:transform_back (    0.1204s, 0.54 %)
sirius::Band::diag_pseudo_potential_davidson|iter (  164.8629s, 0.18 % of self, 50.30 % of total)
|--sirius::Band::apply_h_o (  107.0322s, 64.92 %)
|--sirius::Band::diag_pseudo_potential_davidson|evp (   22.2490s, 13.50 %)
|--sddk::wave_functions::orthogonalize (   18.5141s, 11.23 %)
|--sirius::Band::residuals (    7.5592s, 4.59 %)
|--sirius::Band::set_subspace_mtrx (    5.6737s, 3.44 %)
|--sirius::Band::diag_pseudo_potential_davidson|update_phi (    3.5316s, 2.14 %)
sirius::Band::diag_pseudo_potential_davidson|update_phi (    3.5316s, 0.97 % of self, 1.08 % of total)
|--sddk::wave_functions::transform (    3.4972s, 99.03 %)
sirius::Band::initialize_subspace (    8.1861s, 20.40 % of self, 2.50 % of total)
|--sirius::Band::initialize_subspace|kp (    5.8702s, 71.71 %)
|--sirius::Local_operator::prepare (    0.6463s, 7.89 %)
sirius::Band::initialize_subspace|kp (    5.8702s, 0.27 % of self, 1.79 % of total)
|--sirius::Band::apply_h_o (    4.8006s, 81.78 %)
|--sirius::Band::set_subspace_mtrx (    0.3864s, 6.58 %)
|--Eigenproblem_elpa1|diag (    0.2420s, 4.12 %)
|--sddk::wave_functions::transform (    0.1370s, 2.33 %)
|--Eigenproblem_elpa:transform_to_standard (    0.1188s, 2.02 %)
|--sirius::Band::initialize_subspace|kp|wf (    0.0937s, 1.60 %)
|--sddk::matrix_storage::matrix_storage (    0.0490s, 0.83 %)
|--Eigenproblem_elpa:transform_back (    0.0153s, 0.26 %)
|--sirius::Local_operator::prepare (    0.0116s, 0.20 %)
|--sddk::FFT3D::prepare (    0.0002s, 0.00 %)
|--sirius::Non_local_operator::Non_local_operator (    0.0000s, 0.00 %)
|--sirius::Beta_projectors_base::prepare (    0.0000s, 0.00 %)
|--sirius::Beta_projectors_base::dismiss (    0.0000s, 0.00 %)
sirius::Band::residuals (    7.5592s, 0.40 % of self, 2.31 % of total)
|--sddk::wave_functions::transform (    6.6794s, 88.36 %)
|--sirius::Band::residuals_aux (    0.8495s, 11.24 %)
sirius::Band::set_subspace_mtrx (    6.0601s, 0.67 % of self, 1.85 % of total)
|--sddk::wave_functions::inner (    6.0194s, 99.33 %)
sirius::Band::solve_for_kset (  203.1967s, 14.36 % of self, 61.99 % of total)
|--sirius::Band::diag_pseudo_potential (  166.2532s, 81.82 %)
|--sirius::Local_operator::prepare (    7.7532s, 3.82 %)
|--sirius::K_point_set::sync_band_energies (    0.0037s, 0.00 %)
sirius::Density::add_k_point_contribution_dm (    7.9644s, 0.33 % of self, 2.43 % of total)
|--sirius::Beta_projectors_base::inner (    6.6154s, 83.06 %)
|--sirius::Beta_projectors_base::generate (    1.3227s, 16.61 %)
|--sirius::Beta_projectors_base::prepare (    0.0001s, 0.00 %)
|--sirius::Beta_projectors_base::dismiss (    0.0000s, 0.00 %)
sirius::Density::add_k_point_contribution_rg (    7.8326s, 28.71 % of self, 2.39 % of total)
|--sddk::FFT3D::transform (    5.5799s, 71.24 %)
|--sddk::FFT3D::prepare (    0.0036s, 0.05 %)
sirius::Density::generate_valence (   25.7334s, 14.63 % of self, 7.85 % of total)
|--sirius::Density::add_k_point_contribution_dm (    7.9644s, 30.95 %)
|--sirius::Density::add_k_point_contribution_rg (    7.8326s, 30.44 %)
|--sirius::Smooth_periodic_function::fft_transform (    2.3107s, 8.98 %)
|--sddk::matrix_storage::remap_forward (    1.9081s, 7.41 %)
|--sirius::Smooth_periodic_function::gather_f_pw (    1.1110s, 4.32 %)
|--sirius::Density::augment (    0.8346s, 3.24 %)
|--sddk::FFT3D::prepare (    0.0071s, 0.03 %)
sirius::Forces_PS::calc_local_forces (    5.8506s, 1.36 % of self, 1.78 % of total)
|--sirius::Radial_integrals|vloc (    5.7713s, 98.64 %)
sirius::Local_operator::apply_h (   55.5124s, 14.27 % of self, 16.94 % of total)
|--sddk::FFT3D::transform (   38.3899s, 69.16 %)
|--sddk::matrix_storage::remap_forward (    5.0599s, 9.11 %)
|--sddk::matrix_storage::remap_backward (    4.1395s, 7.46 %)
sirius::Local_operator::prepare (    8.5567s, 14.41 % of self, 2.61 % of total)
|--sirius::Smooth_periodic_function::gather_f_pw (    5.6082s, 65.54 %)
|--sddk::FFT3D::transform (    1.7062s, 19.94 %)
|--sddk::FFT3D::prepare (    0.0089s, 0.10 %)
sirius::Potential::Potential (    6.2102s, 0.28 % of self, 1.89 % of total)
|--sirius::Potential::generate_local_potential (    6.1926s, 99.72 %)
|--sirius::Potential::init (    0.0000s, 0.00 %)
sirius::Potential::generate_local_potential (    6.1926s, 0.01 % of self, 1.89 % of total)
|--sirius::Radial_integrals|vloc (    5.7939s, 93.56 %)
|--sirius::Smooth_periodic_function::fft_transform (    0.3684s, 5.95 %)
|--sirius::Simulation_context_base::make_periodic_function (    0.0296s, 0.48 %)
sirius::Simulation_context::initialize (   12.2302s, 0.01 % of self, 3.73 % of total)
|--sirius::Simulation_context_base::initialize (   10.5705s, 86.43 %)
|--sirius::Augmentation_operator::generate_pw_coeffs (    1.6591s, 13.57 %)
sirius::Simulation_context_base::initialize (   10.5705s, 4.85 % of self, 3.22 % of total)
|--sirius::Radial_integrals|beta (    8.4626s, 80.06 %)
|--sddk::Gvec::init (    0.8832s, 8.36 %)
|--sirius::Radial_integrals|aug (    0.3792s, 3.59 %)
|--sirius::Unit_cell::initialize (    0.1394s, 1.32 %)
|--sddk::remap_gvec_to_shells|init (    0.1207s, 1.14 %)
|--sddk::FFT3D::FFT3D (    0.0724s, 0.69 %)
|--sddk::FFT3D::prepare (    0.0004s, 0.00 %)
sirius::Smooth_periodic_function::fft_transform (   11.9143s, 24.98 % of self, 3.63 % of total)
|--sddk::FFT3D::transform (    8.9386s, 75.02 %)
sirius::Stress|nonloc (    5.9823s, 13.53 % of self, 1.83 % of total)
|--sirius::Beta_projectors_base::inner (    4.1285s, 69.01 %)
|--sirius::Beta_projectors_base::generate (    0.9222s, 15.42 %)
|--sirius::Beta_projectors_strain_deriv::generate_pw_coefs_t (    0.1220s, 2.04 %)
|--sirius::Beta_projectors_base::prepare (    0.0000s, 0.00 %)
|--sirius::Beta_projectors_base::dismiss (    0.0000s, 0.00 %)
sirius::Stress|vloc (   12.8718s, 0.27 % of self, 3.93 % of total)
|--sirius::Radial_integrals|vloc (   12.7822s, 99.30 %)
|--sirius::Simulation_context_base::make_periodic_function (    0.0549s, 0.43 %)
sirius_api::sirius_get_pw_coeffs (    5.9930s, 1.38 % of self, 1.83 % of total)
|--sirius::Smooth_periodic_function::gather_f_pw (    5.9104s, 98.62 %)
sirius_api::sirius_set_pw_coeffs (    9.9151s, 45.17 % of self, 3.02 % of total)
|--sirius::Smooth_periodic_function::fft_transform (    5.4362s, 54.83 %)

     General routines

     Parallel routines

   This run was terminated on:  11: 6:57  25Sep2017

   JOB DONE.