     Program PWSCF v.6.5 starts on 10Mar2020 at 23:30: 1

     R & G space division:  proc/nbgrp/npool/nimage =     144
     Reading input from pw.in
     Message from routine read_cards :
     DEPRECATED: no units specified in CELL_PARAMETERS card
Warning: card 1 1 1  0 0 0 ignored

     Current dimensions of program PWSCF are:
     Max number of different atomic species (ntypx) = 10
     Max number of k-points (npk) =  40000
     Max angular momentum in pseudopotentials (lmaxx) =  3
     Message from routine cell_base_init:
     DEPRECATED: use true lattice parameter, not A to a.u. conversion factor

     gamma-point specific algorithms are used

     Message from routine setup:
     using ibrav=0 with symmetry is DISCOURAGED, use correct ibrav instead

     bravais-lattice index     =            0
     lattice parameter (alat)  =       1.0000  a.u.
     unit-cell volume          =   69174.1805 (a.u.)^3
     number of atoms/cell      =          512
     number of atomic types    =            2
     number of electrons       =      2058.00
     number of Kohn-Sham states=         1235
     kinetic-energy cutoff     =      40.0000  Ry
     charge density cutoff     =     600.0000  Ry
     convergence threshold     =      1.0E-10
     mixing beta               =       0.7000
     number of iterations used =            8  plain     mixing
     Exchange-correlation= SLA  PZ   NOGX NOGC
                           (   1   1   0   0   0   0   0)

     celldm(1)=   1.000000  celldm(2)=   0.000000  celldm(3)=   0.000000
     celldm(4)=   0.000000  celldm(5)=   0.000000  celldm(6)=   0.000000

     crystal axes: (cart. coord. in units of alat)
               a(1) = (  41.050143   0.000000   0.000000 )
               a(2) = (   0.000000  41.050143   0.000000 )
               a(3) = (   0.000000   0.000000  41.050143 )

     reciprocal axes: (cart. coord. in units 2 pi/alat)
               b(1) = (  0.024360  0.000000  0.000000 )
               b(2) = (  0.000000  0.024360  0.000000 )
               b(3) = (  0.000000  0.000000  0.024360 )

     PseudoPot. # 1 for Ge read from file:
     ./ge_lda_v1.uspp.F.UPF
     MD5 check sum: 575f587c0f86b3eee266efe92ef02c15
     Pseudo is Ultrasoft + core correction, Zval = 14.0
     Generated by new atomic code, or converted to UPF format
     Using radial grid of  873 points,  6 beta functions with:
                l(1) =   0
                l(2) =   0
                l(3) =   1
                l(4) =   1
                l(5) =   2
                l(6) =   2
     Q(r) pseudized with  8 coefficients,  rinner =    1.400   1.400   1.400
                                                       1.400   1.400

     PseudoPot. # 2 for Si read from file:
     ./si_lda_v1.uspp.F.UPF
     MD5 check sum: ca10e49b2835512e91ee5100d37237e0
     Pseudo is Ultrasoft + core correction, Zval =  4.0
     Generated by new atomic code, or converted to UPF format
     Using radial grid of  899 points,  6 beta functions with:
                l(1) =   0
                l(2) =   0
                l(3) =   1
                l(4) =   1
                l(5) =   2
                l(6) =   2
     Q(r) pseudized with  8 coefficients,  rinner =    0.900   0.900   0.900
                                                       0.900   0.900

     atomic species   valence    mass     pseudopotential
        Ge            14.00    72.61000     Ge( 1.00)
        Si             4.00    28.08550     Si( 1.00)

     24 Sym. Ops. (no inversion) found

   Cartesian axes

     site n.     atom                  positions (alat units)
         1           Ge  tau(   1) = (   0.0000000   0.0000000   0.0000000  )
         2           Si  tau(   2) = (  20.5250715  20.5250715  20.5250715  )
         3           Si  tau(   3) = (  20.5250715  20.5250715  30.7876073  )
         4           Si  tau(   4) = (  20.5250715  20.5250715   0.0000000  )
         5           Si  tau(   5) = (  20.5250715  20.5250715  10.2625357  )
         6           Si  tau(   6) = (  20.5250715  30.7876073  20.5250715  )
         7           Si  tau(   7) = (  20.5250715  30.7876073  30.7876073  )
         8           Si  tau(   8) = (  20.5250715  30.7876073   0.0000000  )
         9           Si  tau(   9) = (  20.5250715  30.7876073  10.2625357  )
        10           Si  tau(  10) = (  20.5250715   0.0000000  20.5250715  )
        11           Si  tau(  11) = (  20.5250715   0.0000000  30.7876073  )
        12           Si  tau(  12) = (  20.5250715   0.0000000   0.0000000  )
        13           Si  tau(  13) = (  20.5250715   0.0000000  10.2625357  )
        14           Si  tau(  14) = (  20.5250715  10.2625357  20.5250715  )
        15           Si  tau(  15) = (  20.5250715  10.2625357  30.7876073  )
        16           Si  tau(  16) = (  20.5250715  10.2625357   0.0000000  )
        17           Si  tau(  17) = (  20.5250715  10.2625357  10.2625357  )
        18           Si  tau(  18) = (  30.7876073  20.5250715  20.5250715  )
        19           Si  tau(  19) = (  30.7876073  20.5250715  30.7876073  )
        20           Si  tau(  20) = (  30.7876073  20.5250715   0.0000000  )
        21           Si  tau(  21) = (  30.7876073  20.5250715  10.2625357  )
        22           Si  tau(  22) = (  30.7876073  30.7876073  20.5250715  )
        23           Si  tau(  23) = (  30.7876073  30.7876073  30.7876073  )
        24           Si  tau(  24) = (  30.7876073  30.7876073   0.0000000  )
        25           Si  tau(  25) = (  30.7876073  30.7876073  10.2625357  )
        26           Si  tau(  26) = (  30.7876073   0.0000000  20.5250715  )
        27           Si  tau(  27) = (  30.7876073   0.0000000  30.7876073  )
        28           Si  tau(  28) = (  30.7876073   0.0000000   0.0000000  )
        29           Si  tau(  29) = (  30.7876073   0.0000000  10.2625357  )
        30           Si  tau(  30) = (  30.7876073  10.2625357  20.5250715  )
        31           Si  tau(  31) = (  30.7876073  10.2625357  30.7876073  )
        32           Si  tau(  32) = (  30.7876073  10.2625357   0.0000000  )
        33           Si  tau(  33) = (  30.7876073  10.2625357  10.2625357  )
        34           Si  tau(  34) = (   0.0000000  20.5250715  20.5250715  )
        35           Si  tau(  35) = (   0.0000000  20.5250715  30.7876073  )
        36           Si  tau(  36) = (   0.0000000  20.5250715   0.0000000  )
        37           Si  tau(  37) = (   0.0000000  20.5250715  10.2625357  )
        38           Si  tau(  38) = (   0.0000000  30.7876073  20.5250715  )
        39           Si  tau(  39) = (   0.0000000  30.7876073  30.7876073  )
        40           Si  tau(  40) = (   0.0000000  30.7876073   0.0000000  )
        41           Si  tau(  41) = (   0.0000000  30.7876073  10.2625357  )
        42           Si  tau(  42) = (   0.0000000   0.0000000  20.5250715  )
        43           Si  tau(  43) = (   0.0000000   0.0000000  30.7876073  )
        44           Si  tau(  44) = (   0.0000000   0.0000000  10.2625357  )
        45           Si  tau(  45) = (   0.0000000  10.2625357  20.5250715  )
        46           Si  tau(  46) = (   0.0000000  10.2625357  30.7876073  )
        47           Si  tau(  47) = (   0.0000000  10.2625357   0.0000000  )
        48           Si  tau(  48) = (   0.0000000  10.2625357  10.2625357  )
        49           Si  tau(  49) = (  10.2625357  20.5250715  20.5250715  )
        50           Si  tau(  50) = (  10.2625357  20.5250715  30.7876073  )
        51           Si  tau(  51) = (  10.2625357  20.5250715   0.0000000  )
        52           Si  tau(  52) = (  10.2625357  20.5250715  10.2625357  )
        53           Si  tau(  53) = (  10.2625357  30.7876073  20.5250715  )
        54           Si  tau(  54) = (  10.2625357  30.7876073  30.7876073  )
        55           Si  tau(  55) = (  10.2625357  30.7876073   0.0000000  )
        56           Si  tau(  56) = (  10.2625357  30.7876073  10.2625357  )
        57           Si  tau(  57) = (  10.2625357   0.0000000  20.5250715  )
        58           Si  tau(  58) = (  10.2625357   0.0000000  30.7876073  )
        59           Si  tau(  59) = (  10.2625357   0.0000000   0.0000000  )
        60           Si  tau(  60) = (  10.2625357   0.0000000  10.2625357  )
[...]
       498           Si  tau( 498) = (  12.8281697  23.0907054  33.3532412  )
       499           Si  tau( 499) = (  12.8281697  23.0907054   2.5656339  )
       500           Si  tau( 500) = (  12.8281697  23.0907054  12.8281697  )
       501           Si  tau( 501) = (  12.8281697  33.3532412  23.0907054  )
       502           Si  tau( 502) = (  12.8281697  33.3532412  33.3532412  )
       503           Si  tau( 503) = (  12.8281697  33.3532412   2.5656339  )
       504           Si  tau( 504) = (  12.8281697  33.3532412  12.8281697  )
       505           Si  tau( 505) = (  12.8281697   2.5656339  23.0907054  )
       506           Si  tau( 506) = (  12.8281697   2.5656339  33.3532412  )
       507           Si  tau( 507) = (  12.8281697   2.5656339   2.5656339  )
       508           Si  tau( 508) = (  12.8281697   2.5656339  12.8281697  )
       509           Si  tau( 509) = (  12.8281697  12.8281697  23.0907054  )
       510           Si  tau( 510) = (  12.8281697  12.8281697  33.3532412  )
       511           Si  tau( 511) = (  12.8281697  12.8281697   2.5656339  )
       512           Si  tau( 512) = (  12.8281697  12.8281697  12.8281697  )

     number of k points=     1  Gaussian smearing, width (Ry)=  0.0010
                       cart. coord. in units 2pi/alat
        k(    1) = (   0.0000000   0.0000000   0.0000000), wk =   2.0000000

     Initial potential from superposition of free atoms

     Self-consistent Calculation

     iteration #  1     ecut=    40.00 Ry     beta= 0.70

     Threshold (ethr) on eigenvalues was too large:
     Diagonalizing with lowered threshold

     total energy              =   -5126.82650378 Ry
     estimated scf accuracy    <      14.53670422 Ry

     Band energy sum           =      64.99726285 Ry

[...]

     total energy              =   -5128.14960992 Ry
     estimated scf accuracy    <          2.8E-10 Ry

[...]

     iteration # 20     ecut=    40.00 Ry     beta= 0.70

     End of self-consistent calculation

          k = 0.0000 0.0000 0.0000 (147954 PWs)   bands (ev):

   -18.3118 -18.3118 -18.3118 -18.2816 -18.2816  -5.9524  -5.7031  -5.6750
    -5.6750  -5.6750  -5.6749  -5.6749  -5.4554  -5.4078  -5.4078  -5.4078
    -5.4075  -5.4075  -5.4075  -5.4075  -5.4075  -5.4075  -5.4075  -5.4075
    -5.1772  -5.1482  -5.1482  -5.1482  -5.1480  -5.1479  -5.1479  -5.1479
    -4.8936  -4.8663  -4.8663  -4.8663  -4.8661  -4.8661  -4.7049  -4.6194
    -4.6194  -4.6194  -4.6184  -4.6184  -4.6184  -4.6184  -4.6184  -4.6184
    -4.6184  -4.6184  -4.6183  -4.6183  -4.6183  -4.6183  -4.6183  -4.6183
    -4.6183  -4.6183  -4.6183  -4.6182  -4.6182  -4.6182  -4.4473  -4.3916
    -4.3916  -4.3916  -4.3906  -4.3906  -4.3906  -4.3906  -4.3906  -4.3906
    -4.3906  -4.3906  -4.3906  -4.3905  -4.3905  -4.3905  -4.3905  -4.3905
    -4.3905  -4.3905  -4.3905  -4.3905  -4.3905  -4.3905  -3.9577  -3.9036
[...]
 | | |- sirius::Non_local_operator                                       2      30.69 us       0.00       0.52      15.34 us       5.05 us      25.63 us
 | | |- sirius::D_operator::initialize                                   1     337.33 us       0.00       5.75     337.33 us     337.33 us     337.33 us
 | | |- sirius::Q_operator::initialize                                   1     204.54 us       0.00       3.49     204.54 us     204.54 us     204.54 us
 | |
 | |- sirius::Band::initialize_subspace                                  1        4.49 s       1.71      30.74        4.49 s        4.49 s        4.49 s
 | | |- sirius::Hamiltonian_k                                            1      14.84 us       0.00       0.00      14.84 us      14.84 us      14.84 us
 | | | |- sirius::Local_operator::prepare_k                              1      13.47 us       0.00      90.79      13.47 us      13.47 us      13.47 us
 | | |- sirius::Band::initialize_subspace|kp                             1        4.49 s       1.71     100.00        4.49 s        4.49 s        4.49 s
 | | | |- sddk::matrix_storage::matrix_storage                           4       8.14 us       0.00       0.00       2.09 us     596.00 ns       3.36 us
 | | | |- sirius::Band::initialize_subspace|kp|wf                        1      20.84 ms       0.01       0.46      20.84 ms      20.84 ms      20.84 ms
 | | | | |- sirius::K_point::generate_atomic_wave_functions              1      16.73 ms       0.01      80.24      16.73 ms      16.73 ms      16.73 ms
 | | | |- sirius::Hamiltonian_k::apply_h_s                               1        3.46 s       1.32      77.22        3.46 s        3.46 s        3.46 s
 | | | | |- sirius::Local_operator::apply_h                              1        1.98 s       0.76      57.29        1.98 s        1.98 s        1.98 s
 | | | | | |- sddk::matrix_storage::remap_forward                        1       7.33 us       0.00       0.00       7.33 us       7.33 us       7.33 us
 | | | | | | |- sddk::matrix_storage::set_num_extra                      1       5.18 us       0.00      70.71       5.18 us       5.18 us       5.18 us
 | | | | | |- sddk::matrix_storage::set_num_extra                        1     459.00 ns       0.00       0.00     459.00 ns     459.00 ns     459.00 ns
 | | | | | |- sddk::matrix_storage::remap_backward                       1       4.95 us       0.00       0.00       4.95 us       4.95 us       4.95 us
 | | | | |- sirius::Beta_projectors_base::inner                          2     743.76 ms       0.28      21.47     371.88 ms     330.39 ms     413.38 ms
 | | | | | |- sirius::Beta_projectors_base::inner|comm                   2     409.35 ms       0.16      55.04     204.67 ms     165.01 ms     244.34 ms
 | | | | |- sirius::Non_local_operator::apply                            4     731.21 ms       0.28      21.11     182.65 ms     182.03 ms     183.90 ms
 | | | |- sirius::Band::set_subspace_mtrx                                2     281.21 ms       0.11       6.27     140.61 ms     114.37 ms     166.84 ms
 | | | | |- sddk::inner                                                  2     281.09 ms       0.11      99.96     140.54 ms     114.32 ms     166.77 ms
 | | | | | |- sddk::inner|local                                         18     138.70 ms       0.05      49.34     958.41 us      33.21 us      17.14 ms
 | | | | | |- sddk::inner|store                                         18     142.18 ms       0.05      50.58       1.20 ms     903.00 ns      61.52 ms
 | | | |- Eigensolver_scalapack|pdsygvx                                  1     563.04 ms       0.21      12.55     563.04 ms     563.04 ms     563.04 ms
 | | | |- sddk::transform                                                1     150.65 ms       0.06       3.36     150.65 ms     150.65 ms     150.65 ms
 | | | | |- sddk::transform|init                                         1      12.08 ms       0.00       8.02      12.08 ms      12.08 ms      12.08 ms
 | | | | |- sddk::transform|local                                        2      40.40 ms       0.02      26.82      20.20 ms     795.34 us      39.60 ms
 |
 |- qe|electrons                                                         1      243.77 s      92.76      92.76      243.77 s      243.77 s      243.77 s
 | |- sirius::Hamiltonian0                                              21      45.50 ms       0.02       0.02       2.03 ms       2.00 ms       4.67 ms
 | | |- sirius::Local_operator                                          21      24.72 ms       0.01      54.33       1.05 ms       1.01 ms       3.67 ms
 | | | |- sirius::Smooth_periodic_function                              21       1.37 ms       0.00       5.56      57.32 us      56.68 us     149.85 us
 | | | |- sirius::Smooth_periodic_function::fft_transform               21      21.84 ms       0.01      88.36     917.17 us     886.49 us       3.43 ms
 | | |- sirius::Non_local_operator                                      42     281.65 us       0.00       0.62       6.94 us       4.66 us      15.54 us
 | | |- sirius::D_operator::initialize                                  21       6.54 ms       0.00      14.38     302.99 us     298.61 us     374.97 us
 | | |- sirius::Q_operator::initialize                                  21       4.27 ms       0.00       9.39     202.91 us     200.90 us     209.87 us
 | |
 | |- sirius::Band::solve                                               21      173.05 s      65.85      70.99        7.44 s        2.66 s       23.84 s
 | | |- sirius::Hamiltonian_k                                           21     260.56 us       0.00       0.00      12.00 us      11.55 us      17.36 us
 | | | |- sirius::Local_operator::prepare_k                             21     234.97 us       0.00      90.18      10.92 us      10.53 us      15.19 us
 | | |- sirius::Band::diag_pseudo_potential_davidson                    21      173.05 s      65.85     100.00        7.44 s        2.66 s       23.84 s
 | | | |- sirius::Band::diag_pseudo_potential_davidson|alloc            21     368.57 us       0.00       0.00      16.70 us      15.53 us      25.71 us
 | | | | |- sddk::matrix_storage::matrix_storage                       126     125.69 us       0.00      34.10     855.50 ns     426.00 ns       2.44 us
 | | | |- sirius::Hamiltonian_k::get_h_o_diag                           21     126.03 ms       0.05       0.07       5.99 ms       5.88 ms       6.36 ms
 | | | |- sirius::Band::diag_pseudo_potential_davidson|iter             21      172.93 s      65.80      99.93        7.44 s        2.65 s       23.83 s
 | | | | |- sirius::Hamiltonian_k::apply_h_s                           101       88.04 s      33.50      50.91     548.12 ms      16.57 ms        2.01 s
 | | | | | |- sirius::Local_operator::apply_h                          101       53.47 s      20.35      60.73     305.97 ms       1.09 ms        1.29 s
 | | | | | | |- sddk::matrix_storage::remap_forward                    101     294.15 us       0.00       0.00       2.43 us       1.81 us      11.57 us
 | | | | | | | |- sddk::matrix_storage::set_num_extra                  101     263.30 us       0.00      89.51       2.15 us       1.52 us      11.26 us
 | | | | | | |- sddk::matrix_storage::set_num_extra                    101      62.70 us       0.00       0.00     598.00 ns     338.00 ns       1.02 us
 | | | | | | |- sddk::matrix_storage::remap_backward                   101      47.90 us       0.00       0.00     468.00 ns     202.00 ns       1.20 us
 | | | | | |- sirius::Beta_projectors_base::inner                      202       16.32 s       6.21      18.54      49.69 ms       2.69 ms     240.44 ms
 | | | | | | |- sirius::Beta_projectors_base::inner|comm               202        8.20 s       3.12      50.21      22.40 ms     178.45 us     155.61 ms
 | | | | | |- sirius::Non_local_operator::apply                        404       18.04 s       6.86      20.49      35.13 ms       2.47 ms      95.06 ms
 | | | | |- sddk::orthogonalize                                        101       18.33 s       6.98      10.60     125.44 ms       3.13 ms     585.55 ms
 | | | | | |- sddk::inner                                              181        4.31 s       1.64      23.54      12.23 ms      62.41 us      95.01 ms
 | | | | | | |- sddk::inner|local                                      496        2.03 s       0.77      46.97       1.96 ms       6.86 us      19.16 ms
 | | | | | | |- sddk::inner|store                                      496        2.28 s       0.87      52.90     564.97 us     378.00 ns      35.03 ms
 | | | | | |- sddk::orthogonalize|potrf                                101     356.28 ms       0.14       1.94       2.00 ms      95.27 us      19.06 ms
 | | | | | |- sddk::orthogonalize|trtri                                101     352.59 ms       0.13       1.92     851.41 us      88.71 us      16.78 ms
 | | | | | |- sddk::transform                                          383       12.03 s       4.58      65.64      10.95 ms      52.10 us     227.84 ms
 | | | | | | |- sddk::transform|init                                   383     594.51 ms       0.23       4.94     524.00 us     617.00 ns       8.11 ms
 | | | | | | |- sddk::transform|local                                  747        5.81 s       2.21      48.27       2.50 ms       1.70 us      38.62 ms
 | | | | |- sirius::Band::set_subspace_mtrx                            101        3.34 s       1.27       1.93      25.43 ms     917.82 us     121.46 ms
 | | | | | |- sddk::inner                                              101        3.32 s       1.26      99.43      25.26 ms     856.60 us     121.16 ms
 | | | | | | |- sddk::inner|local                                      410        2.03 s       0.77      60.97       2.89 ms      86.42 us      18.95 ms
 | | | | | | |- sddk::inner|store                                      410        1.29 s       0.49      38.93     499.41 us     410.00 ns      26.15 ms
 | | | | |- sirius::Band::diag_pseudo_potential_davidson|evp           101       54.81 s      20.86      31.70     491.30 ms     199.73 ms        1.28 s
 | | | | | |- Eigensolver_scalapack|pdsyevx                            101       54.81 s      20.86     100.00     491.30 ms     199.73 ms        1.28 s
 | | | | |- sirius::residuals                                          101        5.31 s       2.02       3.07      40.46 ms      12.40 us     193.71 ms
 | | | | | |- sddk::transform                                           84        4.82 s       1.84      90.86      57.37 ms       4.73 ms     183.53 ms
 | | | | | | |- sddk::transform|init                                    84     233.60 ms       0.09       4.84       1.76 ms       4.66 us       7.00 ms
 | | | | | | |- sddk::transform|local                                  304        2.48 s       0.94      51.34       3.94 ms     104.52 us      38.72 ms
 | | | | | |- sirius::normalized_preconditioned_residuals               84     465.24 ms       0.18       8.76       3.73 ms     173.76 us      13.73 ms
 | | | | |- sirius::Band::diag_pseudo_potential_davidson|update_phi     21        2.87 s       1.09       1.66     139.46 ms      61.57 ms     236.01 ms
 | | | | | |- sddk::transform                                           21        2.87 s       1.09      99.99     139.45 ms      61.56 ms     236.00 ms
 | | | | | | |- sddk::transform|init                                    21      72.86 ms       0.03       2.54       3.46 ms       3.43 ms       3.51 ms
 | | | | | | |- sddk::transform|local                                   38        1.09 s       0.41      37.78      32.51 ms       8.07 ms      40.17 ms
 | | |- sirius::K_point_set::sync_band_energies                         21     433.49 us       0.00       0.00      18.04 us      15.85 us      37.14 us
 | |
 | |- qe|sum_band                                                       21       33.91 s      12.90      13.91        1.60 s        1.58 s        1.68 s
 | | |- sirius::Density::generate                                       21       23.23 s       8.84      68.51        1.10 s        1.06 s        1.17 s
 | | | |- sirius::Density::generate_valence                             21       23.23 s       8.84     100.00        1.10 s        1.06 s        1.17 s
 | | | | |- sddk::matrix_storage::remap_forward                         21     107.17 us       0.00       0.00       4.82 us       3.20 us      11.08 us
 | | | | | |- sddk::matrix_storage::set_num_extra                       21      98.22 us       0.00      91.64       4.47 us       2.76 us      10.68 us
 | | | | |- sirius::Density::add_k_point_contribution_dm                21        5.99 s       2.28      25.81     281.75 ms     277.83 ms     331.59 ms
 | | | | | |- sirius::Beta_projectors_base::inner                       42        5.98 s       2.28      99.82     144.24 ms     132.28 ms     198.09 ms
 | | | | | | |- sirius::Beta_projectors_base::inner|comm                42        2.97 s       1.13      49.61      72.17 ms      60.86 ms     126.96 ms
 | | | | |- sirius::Density::add_k_point_contribution_rg                21       11.17 s       4.25      48.09     527.47 ms     498.24 ms     606.00 ms
 | | | | |- sirius::Smooth_periodic_function::fft_transform             21      18.40 ms       0.01       0.08     755.13 us     705.46 us       2.64 ms
 | | | | |- sirius::Density::augment                                    21        5.89 s       2.24      25.37     280.90 ms     274.43 ms     282.03 ms
 | | | | | |- sirius::Density::generate_rho_aug                         21        5.89 s       2.24      99.98     280.85 ms     274.37 ms     281.97 ms
 | | | | | | |- sirius::Density::generate_rho_aug|gemm                  42        2.08 s       0.79      35.35      49.13 ms      11.54 ms      88.06 ms
 | | | | | | |- sirius::Density::generate_rho_aug|sum                   42     903.73 ms       0.34      15.34      21.50 ms      21.31 ms      21.77 ms
 | | |- sirius_api::sirius_get_pw_coeffs                                21        8.78 s       3.34      25.89     421.40 ms     386.64 ms     455.88 ms
 | | | |- sirius::Smooth_periodic_function::gather_f_pw                 21        8.69 s       3.31      98.99     417.37 ms     382.56 ms     451.34 ms
 | | |- qe|sym_rho                                                      21      40.78 us       0.00       0.00       1.74 us       1.60 us       5.67 us
 | |
 | |- qe|mix                                                            21     417.05 ms       0.16       0.17      22.59 ms     169.50 us      23.63 ms
 | |- sirius_api::sirius_set_pw_coeffs                                  20       28.54 s      10.86      11.71        1.43 s        1.29 s        1.60 s
 | | |- sirius::Smooth_periodic_function::fft_transform                 20     163.66 ms       0.06       0.57       6.17 ms       5.93 ms      45.56 ms
 | |
 | |- qe|newd                                                           20        6.74 s       2.57       2.77     338.06 ms     334.42 ms     338.75 ms
 | | |- sirius::Potential::generate_D_operator_matrix                   20        6.70 s       2.55      99.43     336.14 ms     332.47 ms     336.79 ms
 |
 |- sirius_api::sirius_get_wave_functions                                1        2.49 s       0.95       0.95        2.49 s        2.49 s        2.49 s
 | |- sddk::matrix_storage::matrix_storage                               1      18.54 us       0.00       0.00      18.54 us      18.54 us      18.54 us
 |
 |- qe|ions                                                              1        1.28 s       0.49       0.49        1.28 s        1.28 s        1.28 s
 | |- sirius_api::sirius_set_pw_coeffs                                   1        1.28 s       0.49      99.85        1.28 s        1.28 s        1.28 s
 | | |- sirius::Smooth_periodic_function::fft_transform                  1       6.20 ms       0.00       0.49       6.20 ms       6.20 ms       6.20 ms
 |
 |- qe|punch                                                             1     820.00 ns       0.00       0.00     820.00 ns     820.00 ns     820.00 ns
 |- sirius::finalize                                                     1      17.20 us       0.00       0.00      17.20 us      17.20 us      17.20 us

Batch Job Summary Report for Job "test_scf" (20945564) on daint
2020-03-10T23:29:27 2020-03-10T23:29:27 2020-03-10T23:29:28 2020-03-10T23:34:25   00:04:57   00:20:00
Username    Account     Partition   NNodes   Energy
antonk      csstaff     normal          36        0 joules

This job did not utilize any GPUs

Scratch File System        Files       Quota
/scratch/snx3000            2683     1000000