     Program PWSCF v.6.5 starts on 10Mar2020 at 15:18: 9

     R & G space division:  proc/nbgrp/npool/nimage =      16
     Reading input from pw.in
     Message from routine read_cards :
     DEPRECATED: no units specified in CELL_PARAMETERS card
Warning: card 1 1 1  0 0 0 ignored

     Current dimensions of program PWSCF are:
     Max number of different atomic species (ntypx) = 10
     Max number of k-points (npk) =  40000
     Max angular momentum in pseudopotentials (lmaxx) =  3
     Message from routine cell_base_init:
     DEPRECATED: use true lattice parameter, not A to a.u. conversion factor

     gamma-point specific algorithms are used

     Message from routine setup:
     using ibrav=0 with symmetry is DISCOURAGED, use correct ibrav instead

     bravais-lattice index     =            0
     lattice parameter (alat)  =       1.0000  a.u.
     unit-cell volume          =   69174.1805 (a.u.)^3
     number of atoms/cell      =          512
     number of atomic types    =            2
     number of electrons       =      2058.00
     number of Kohn-Sham states=         1235
     kinetic-energy cutoff     =      40.0000  Ry
     charge density cutoff     =     600.0000  Ry
     convergence threshold     =      1.0E-10
     mixing beta               =       0.7000
     number of iterations used =            8  plain     mixing
     Exchange-correlation= SLA  PZ   NOGX NOGC
                           (   1   1   0   0   0   0   0)

     celldm(1)=   1.000000  celldm(2)=   0.000000  celldm(3)=   0.000000
     celldm(4)=   0.000000  celldm(5)=   0.000000  celldm(6)=   0.000000

     crystal axes: (cart. coord. in units of alat)
               a(1) = (  41.050143   0.000000   0.000000 )
               a(2) = (   0.000000  41.050143   0.000000 )
               a(3) = (   0.000000   0.000000  41.050143 )

     reciprocal axes: (cart. coord. in units 2 pi/alat)
               b(1) = (  0.024360  0.000000  0.000000 )
               b(2) = (  0.000000  0.024360  0.000000 )
               b(3) = (  0.000000  0.000000  0.024360 )

     PseudoPot. # 1 for Ge read from file:
     ./ge_lda_v1.uspp.F.UPF
     MD5 check sum: 575f587c0f86b3eee266efe92ef02c15
     Pseudo is Ultrasoft + core correction, Zval = 14.0
     Generated by new atomic code, or converted to UPF format
     Using radial grid of  873 points,  6 beta functions with:
                l(1) =   0
                l(2) =   0
                l(3) =   1
                l(4) =   1
                l(5) =   2
                l(6) =   2
     Q(r) pseudized with  8 coefficients,  rinner =    1.400   1.400   1.400
                                                       1.400   1.400

     PseudoPot. # 2 for Si read from file:
     ./si_lda_v1.uspp.F.UPF
     MD5 check sum: ca10e49b2835512e91ee5100d37237e0
     Pseudo is Ultrasoft + core correction, Zval =  4.0
     Generated by new atomic code, or converted to UPF format
     Using radial grid of  899 points,  6 beta functions with:
                l(1) =   0
                l(2) =   0
                l(3) =   1
                l(4) =   1
                l(5) =   2
                l(6) =   2
     Q(r) pseudized with  8 coefficients,  rinner =    0.900   0.900   0.900
                                                       0.900   0.900

     atomic species   valence    mass     pseudopotential
        Ge            14.00    72.61000     Ge( 1.00)
        Si             4.00    28.08550     Si( 1.00)

     24 Sym. Ops. (no inversion) found

   Cartesian axes

     site n.     atom                  positions (alat units)
         1           Ge  tau(   1) = (   0.0000000   0.0000000   0.0000000  )
         2           Si  tau(   2) = (  20.5250715  20.5250715  20.5250715  )
         3           Si  tau(   3) = (  20.5250715  20.5250715  30.7876073  )
         4           Si  tau(   4) = (  20.5250715  20.5250715   0.0000000  )
         5           Si  tau(   5) = (  20.5250715  20.5250715  10.2625357  )
         6           Si  tau(   6) = (  20.5250715  30.7876073  20.5250715  )
         7           Si  tau(   7) = (  20.5250715  30.7876073  30.7876073  )
         8           Si  tau(   8) = (  20.5250715  30.7876073   0.0000000  )
         9           Si  tau(   9) = (  20.5250715  30.7876073  10.2625357  )
        10           Si  tau(  10) = (  20.5250715   0.0000000  20.5250715  )
        11           Si  tau(  11) = (  20.5250715   0.0000000  30.7876073  )
        12           Si  tau(  12) = (  20.5250715   0.0000000   0.0000000  )
        13           Si  tau(  13) = (  20.5250715   0.0000000  10.2625357  )
        14           Si  tau(  14) = (  20.5250715  10.2625357  20.5250715  )
        15           Si  tau(  15) = (  20.5250715  10.2625357  30.7876073  )
        16           Si  tau(  16) = (  20.5250715  10.2625357   0.0000000  )
        17           Si  tau(  17) = (  20.5250715  10.2625357  10.2625357  )
        18           Si  tau(  18) = (  30.7876073  20.5250715  20.5250715  )
        19           Si  tau(  19) = (  30.7876073  20.5250715  30.7876073  )
        20           Si  tau(  20) = (  30.7876073  20.5250715   0.0000000  )
        21           Si  tau(  21) = (  30.7876073  20.5250715  10.2625357  )
        22           Si  tau(  22) = (  30.7876073  30.7876073  20.5250715  )
        23           Si  tau(  23) = (  30.7876073  30.7876073  30.7876073  )
        24           Si  tau(  24) = (  30.7876073  30.7876073   0.0000000  )
        25           Si  tau(  25) = (  30.7876073  30.7876073  10.2625357  )
        26           Si  tau(  26) = (  30.7876073   0.0000000  20.5250715  )
        27           Si  tau(  27) = (  30.7876073   0.0000000  30.7876073  )
        28           Si  tau(  28) = (  30.7876073   0.0000000   0.0000000  )
        29           Si  tau(  29) = (  30.7876073   0.0000000  10.2625357  )
        30           Si  tau(  30) = (  30.7876073  10.2625357  20.5250715  )
        31           Si  tau(  31) = (  30.7876073  10.2625357  30.7876073  )
        32           Si  tau(  32) = (  30.7876073  10.2625357   0.0000000  )
        33           Si  tau(  33) = (  30.7876073  10.2625357  10.2625357  )
        34           Si  tau(  34) = (   0.0000000  20.5250715  20.5250715  )
        35           Si  tau(  35) = (   0.0000000  20.5250715  30.7876073  )
        36           Si  tau(  36) = (   0.0000000  20.5250715   0.0000000  )
        37           Si  tau(  37) = (   0.0000000  20.5250715  10.2625357  )
        38           Si  tau(  38) = (   0.0000000  30.7876073  20.5250715  )
        39           Si  tau(  39) = (   0.0000000  30.7876073  30.7876073  )
        40           Si  tau(  40) = (   0.0000000  30.7876073   0.0000000  )
        41           Si  tau(  41) = (   0.0000000  30.7876073  10.2625357  )
        42           Si  tau(  42) = (   0.0000000   0.0000000  20.5250715  )
        43           Si  tau(  43) = (   0.0000000   0.0000000  30.7876073  )
        44           Si  tau(  44) = (   0.0000000   0.0000000  10.2625357  )
        45           Si  tau(  45) = (   0.0000000  10.2625357  20.5250715  )
        46           Si  tau(  46) = (   0.0000000  10.2625357  30.7876073  )
        47           Si  tau(  47) = (   0.0000000  10.2625357   0.0000000  )
        48           Si  tau(  48) = (   0.0000000  10.2625357  10.2625357  )
        49           Si  tau(  49) = (  10.2625357  20.5250715  20.5250715  )
        50           Si  tau(  50) = (  10.2625357  20.5250715  30.7876073  )
        51           Si  tau(  51) = (  10.2625357  20.5250715   0.0000000  )
        52           Si  tau(  52) = (  10.2625357  20.5250715  10.2625357  )
        53           Si  tau(  53) = (  10.2625357  30.7876073  20.5250715  )
        54           Si  tau(  54) = (  10.2625357  30.7876073  30.7876073  )
        55           Si  tau(  55) = (  10.2625357  30.7876073   0.0000000  )
        56           Si  tau(  56) = (  10.2625357  30.7876073  10.2625357  )
        57           Si  tau(  57) = (  10.2625357   0.0000000  20.5250715  )
        58           Si  tau(  58) = (  10.2625357   0.0000000  30.7876073  )
        59           Si  tau(  59) = (  10.2625357   0.0000000   0.0000000  )
        60           Si  tau(  60) = (  10.2625357   0.0000000  10.2625357  )
[...]
       498           Si  tau( 498) = (  12.8281697  23.0907054  33.3532412  )
       499           Si  tau( 499) = (  12.8281697  23.0907054   2.5656339  )
       500           Si  tau( 500) = (  12.8281697  23.0907054  12.8281697  )
       501           Si  tau( 501) = (  12.8281697  33.3532412  23.0907054  )
       502           Si  tau( 502) = (  12.8281697  33.3532412  33.3532412  )
       503           Si  tau( 503) = (  12.8281697  33.3532412   2.5656339  )
       504           Si  tau( 504) = (  12.8281697  33.3532412  12.8281697  )
       505           Si  tau( 505) = (  12.8281697   2.5656339  23.0907054  )
       506           Si  tau( 506) = (  12.8281697   2.5656339  33.3532412  )
       507           Si  tau( 507) = (  12.8281697   2.5656339   2.5656339  )
       508           Si  tau( 508) = (  12.8281697   2.5656339  12.8281697  )
       509           Si  tau( 509) = (  12.8281697  12.8281697  23.0907054  )
       510           Si  tau( 510) = (  12.8281697  12.8281697  33.3532412  )
       511           Si  tau( 511) = (  12.8281697  12.8281697   2.5656339  )
       512           Si  tau( 512) = (  12.8281697  12.8281697  12.8281697  )

     number of k points=     1  Gaussian smearing, width (Ry)=  0.0010
                       cart. coord. in units 2pi/alat
        k(    1) = (   0.0000000   0.0000000   0.0000000), wk =   2.0000000

     Initial potential from superposition of free atoms

     Self-consistent Calculation

     iteration #  1     ecut=    40.00 Ry     beta= 0.70

     Threshold (ethr) on eigenvalues was too large:
     Diagonalizing with lowered threshold

     total energy              =   -5126.82650026 Ry
     estimated scf accuracy    <      14.53670740 Ry

     Band energy sum           =      64.99726518 Ry

[...]

     total energy              =   -5128.14960992 Ry
     estimated scf accuracy    <          2.8E-10 Ry

[...]

     iteration # 20     ecut=    40.00 Ry     beta= 0.70

     End of self-consistent calculation

          k = 0.0000 0.0000 0.0000 (147954 PWs)   bands (ev):

   -18.3118 -18.3118 -18.3118 -18.2816 -18.2816  -5.9524  -5.7031  -5.6750
    -5.6750  -5.6750  -5.6749  -5.6749  -5.4554  -5.4078  -5.4078  -5.4078
    -5.4075  -5.4075  -5.4075  -5.4075  -5.4075  -5.4075  -5.4075  -5.4075
    -5.1772  -5.1482  -5.1482  -5.1482  -5.1480  -5.1479  -5.1479  -5.1479
    -4.8936  -4.8663  -4.8663  -4.8663  -4.8661  -4.8661  -4.7049  -4.6194
    -4.6194  -4.6194  -4.6184  -4.6184  -4.6184  -4.6184  -4.6184  -4.6184
    -4.6184  -4.6184  -4.6183  -4.6183  -4.6183  -4.6183  -4.6183  -4.6183
    -4.6183  -4.6183  -4.6183  -4.6182  -4.6182  -4.6182  -4.4473  -4.3916
    -4.3916  -4.3916  -4.3906  -4.3906  -4.3906  -4.3906  -4.3906  -4.3906
    -4.3906  -4.3906  -4.3906  -4.3905  -4.3905  -4.3905  -4.3905  -4.3905
    -4.3905  -4.3905  -4.3905  -4.3905  -4.3905  -4.3905  -3.9577  -3.9036
[...]
 | | | | | |- sddk::matrix_storage::set_num_extra                          1     146.62 ms       0.09      16.30     146.62 ms     146.62 ms     146.62 ms
 | | | | | | |- sddk::matrix_storage::set_num_extra|alloc                  1     146.61 ms       0.09     100.00     146.61 ms     146.61 ms     146.61 ms
 | | | | | |- sddk::matrix_storage::remap_backward                         1     126.53 ms       0.08      14.06     126.53 ms     126.53 ms     126.53 ms
 | | | | |- sirius::Beta_projectors_base::generate                         2       5.57 ms       0.00       0.32       2.79 ms       2.23 ms       3.34 ms
 | | | | |- sirius::Beta_projectors_base::inner                            2     490.60 ms       0.31      28.52     245.30 ms     237.88 ms     252.72 ms
 | | | | | |- sirius::Beta_projectors_base::inner|comm                     2     188.50 ms       0.12      38.42      94.25 ms      92.67 ms      95.83 ms
 | | | | |- sirius::Non_local_operator::apply                              4     324.31 ms       0.20      18.85      81.06 ms      80.96 ms      81.23 ms
 | | | |- sirius::Band::set_subspace_mtrx                                  2     247.08 ms       0.15       8.78     123.54 ms     107.55 ms     139.53 ms
 | | | | |- sddk::inner                                                    2     246.64 ms       0.15      99.82     123.32 ms     107.34 ms     139.31 ms
 | | | | | |- sddk::inner|local                                            2      57.41 us       0.00       0.02      28.71 us      18.01 us      39.40 us
 | | | | | |- sddk::inner|device_copy                                      4     119.60 ms       0.07      48.49      29.65 ms       2.79 ms      57.51 ms
 | | | | | |- sddk::inner|store                                            4      10.09 ms       0.01       4.09       2.52 ms       1.96 ms       3.08 ms
 | | | |- Eigensolver_cuda|dsygvd                                          1     257.00 ms       0.16       9.13     257.00 ms     257.00 ms     257.00 ms
 | | | |- sddk::transform                                                  1      23.66 ms       0.01       0.84      23.66 ms      23.66 ms      23.66 ms
 | | | | |- sddk::transform|init                                           1      16.61 us       0.00       0.07      16.61 us      16.61 us      16.61 us
 | | | | |- sddk::transform|local                                          1      19.85 us       0.00       0.08      19.85 us      19.85 us      19.85 us
 | | |- sirius::Beta_projectors_base::dismiss                              1     576.00 ns       0.00       0.00     576.00 ns     576.00 ns     576.00 ns
 |
 |- qe|electrons                                                           1      140.67 s      87.56      87.56      140.67 s      140.67 s      140.67 s
 | |- sirius::Hamiltonian0                                                21     632.78 ms       0.39       0.45      27.16 ms      26.56 ms      73.05 ms
 | | |- sirius::Local_operator                                            21     606.57 ms       0.38      95.86      25.89 ms      25.32 ms      71.82 ms
 | | | |- sirius::Smooth_periodic_function                                21     108.61 ms       0.07      17.90       4.84 ms       4.83 ms      11.14 ms
 | | | |- sirius::Smooth_periodic_function::fft_transform                 21     358.32 ms       0.22      59.07      14.34 ms      13.82 ms      60.34 ms
 | | |- sirius::Non_local_operator                                        42       3.17 ms       0.00       0.50      76.64 us      66.68 us      83.67 us
 | | |- sirius::D_operator::initialize                                    21       7.45 ms       0.00       1.18     353.16 us     350.03 us     383.68 us
 | | |- sirius::Q_operator::initialize                                    21      11.32 ms       0.01       1.79     537.80 us     531.67 us     561.09 us
 | |
 | |- sirius::Band::solve                                                 21       95.81 s      59.64      68.11        3.55 s        1.29 s       16.38 s
 | | |- sirius::Hamiltonian_k                                             21       8.34 ms       0.01       0.01     395.04 us     384.88 us     445.55 us
 | | | |- sirius::Local_operator::prepare_k                               21       8.18 ms       0.01      98.16     387.99 us     378.13 us     437.99 us
 | | | |- sirius::Beta_projectors_base::prepare                           21      99.31 us       0.00       1.19       4.72 us       4.25 us       5.20 us
 | | |- sirius::Band::diag_pseudo_potential_davidson                      21       95.80 s      59.63      99.99        3.55 s        1.29 s       16.38 s
 | | | |- sirius::Band::diag_pseudo_potential_davidson|alloc              21        1.52 s       0.95       1.59      18.54 ms      18.50 ms        1.15 s
 | | | | |- sddk::matrix_storage::matrix_storage                         126     910.03 ms       0.57      59.92     416.00 ns     256.00 ns     869.60 ms
 | | | |- sirius::Hamiltonian_k::get_h_o_diag                             21     337.83 ms       0.21       0.35      16.03 ms      16.00 ms      17.03 ms
 | | | |- sirius::Band::diag_pseudo_potential_davidson|iter               21       93.64 s      58.29      97.75        3.50 s        1.24 s       16.33 s
 | | | | |- sirius::Hamiltonian_k::apply_h_s                             103       39.80 s      24.77      42.50     197.08 ms      25.97 ms        1.11 s
 | | | | | |- sirius::Local_operator::apply_h                            103       16.47 s      10.25      41.37      78.52 ms       7.21 ms     611.44 ms
 | | | | | | |- sddk::matrix_storage::remap_forward                      103        3.31 s       2.06      20.10      14.62 ms       3.92 ms     264.74 ms
 | | | | | | | |- sddk::matrix_storage::set_num_extra                    103      89.16 ms       0.06       2.69       2.84 us       2.33 us      88.77 ms
 | | | | | | | | |- sddk::matrix_storage::set_num_extra|alloc             21      88.88 ms       0.06      99.69       5.64 us       4.71 us      88.77 ms
 | | | | | | |- sddk::matrix_storage::set_num_extra                      103      89.19 ms       0.06       0.54       3.79 us       1.27 us      88.72 ms
 | | | | | | | |- sddk::matrix_storage::set_num_extra|alloc               21      88.89 ms       0.06      99.67       8.97 us       7.10 us      88.72 ms
 | | | | | | |- sddk::matrix_storage::remap_backward                     103        3.31 s       2.06      20.10      16.83 ms     758.77 us      96.04 ms
 | | | | | |- sirius::Beta_projectors_base::generate                     206     483.55 ms       0.30       1.21       2.21 ms       2.17 ms       2.91 ms
 | | | | | |- sirius::Beta_projectors_base::inner                        206       13.10 s       8.15      32.91      28.71 ms       1.50 ms     308.51 ms
 | | | | | | |- sirius::Beta_projectors_base::inner|comm                 206        5.83 s       3.63      44.50      13.13 ms     199.90 us     228.77 ms
 | | | | | |- sirius::Non_local_operator::apply                          412        9.75 s       6.07      24.50      14.49 ms       2.52 ms      50.45 ms
 | | | | |- sddk::orthogonalize                                          103        6.38 s       3.97       6.81      42.32 ms       2.07 ms     350.80 ms
 | | | | | |- sddk::inner                                                185        3.33 s       2.07      52.21       6.98 ms      64.51 us     224.07 ms
 | | | | | | |- sddk::inner|local                                        185       3.87 ms       0.00       0.12      20.71 us       8.17 us      49.09 us
 | | | | | | |- sddk::inner|device_copy                                  370        1.37 s       0.85      41.11     718.61 us       9.56 us      38.35 ms
 | | | | | | |- sddk::inner|store                                        370     104.68 ms       0.07       3.14      94.36 us       1.90 us       1.60 ms
 | | | | | |- sddk::orthogonalize|tmtrx                                  103     237.87 ms       0.15       3.73     501.62 us      19.35 us       9.02 ms
 | | | | | |- sddk::orthogonalize|transform                              103        1.12 s       0.70      17.62       2.87 ms      46.16 us      28.10 ms
 | | | | | |- sddk::transform                                             82        1.69 s       1.05      26.43      14.04 ms     967.93 us      78.37 ms
 | | | | | | |- sddk::transform|init                                      82       1.32 ms       0.00       0.08      14.26 us      12.36 us      25.54 us
 | | | | | | |- sddk::transform|local                                    246       2.27 ms       0.00       0.13       5.52 us       3.57 us      42.54 us
 | | | | |- sirius::Band::set_subspace_mtrx                              103        3.84 s       2.39       4.10      30.54 ms       1.66 ms     166.93 ms
 | | | | | |- sddk::inner                                                103        3.09 s       1.92      80.38      21.36 ms     521.68 us     162.73 ms
 | | | | | | |- sddk::inner|local                                        103       4.28 ms       0.00       0.14      33.53 us      17.08 us      70.74 us
 | | | | | | |- sddk::inner|device_copy                                  206        1.48 s       0.92      47.85       1.53 ms      12.46 us      57.34 ms
 | | | | | | |- sddk::inner|store                                        206     107.75 ms       0.07       3.49     315.02 us       7.89 us       3.20 ms
 | | | | |- sirius::Band::diag_pseudo_potential_davidson|evp             103       41.14 s      25.61      43.94     303.42 ms     103.23 ms        1.09 s
 | | | | | |- Eigensolver_cuda|dsyevd                                    103       41.14 s      25.61     100.00     303.42 ms     103.23 ms        1.09 s
 | | | | |- sirius::residuals                                            103        1.84 s       1.14       1.96      13.32 ms      10.67 us      77.05 ms
 | | | | | |- sddk::transform                                             86        1.27 s       0.79      69.14      10.23 ms     736.52 us      52.62 ms
 | | | | | | |- sddk::transform|init                                      86       1.33 ms       0.00       0.10      15.04 us      12.69 us      21.16 us
 | | | | | | |- sddk::transform|local                                    172       2.80 ms       0.00       0.22      15.24 us       5.06 us      63.40 us
 | | | | | |- sirius::normalized_preconditioned_residuals                 86     461.35 ms       0.29      25.13       4.37 ms     856.70 us      51.20 ms
 | | | | |- sirius::Band::diag_pseudo_potential_davidson|update_phi       21     636.83 ms       0.40       0.68      31.53 ms      14.57 ms      54.82 ms
 | | | | | |- sddk::transform                                             21     636.67 ms       0.40      99.97      31.53 ms      14.57 ms      54.81 ms
 | | | | | | |- sddk::transform|init                                      21     230.73 us       0.00       0.04      12.14 us       5.31 us      13.05 us
 | | | | | | |- sddk::transform|local                                     21     373.33 us       0.00       0.06      18.44 us       8.53 us      19.76 us
 | | |- sirius::Beta_projectors_base::dismiss                             21      12.27 us       0.00       0.00     568.00 ns     457.00 ns     795.00 ns
 | | |- sirius::K_point_set::sync_band_energies                           21     352.91 us       0.00       0.00      17.03 us      15.75 us      18.12 us
 | |
 | |- qe|sum_band                                                         21       20.91 s      13.02      14.87     962.95 ms     936.34 ms        1.23 s
 | | |- sirius::Density::generate                                         21       17.02 s      10.59      81.36     795.55 ms     764.71 ms     999.47 ms
 | | | |- sirius::Density::generate_valence                               21       17.02 s      10.59     100.00     795.55 ms     764.71 ms     999.46 ms
 | | | | |- sddk::matrix_storage::remap_forward                           21        1.08 s       0.67       6.37      48.68 ms      43.24 ms      82.42 ms
 | | | | | |- sddk::matrix_storage::set_num_extra                         21     142.66 us       0.00       0.01       6.57 us       5.96 us      10.95 us
 | | | | | | |- sddk::matrix_storage::set_num_extra|alloc                  1       7.21 us       0.00       5.05       7.21 us       7.21 us       7.21 us
 | | | | |- sirius::Density::add_k_point_contribution_dm                  21        5.25 s       3.27      30.85     238.03 ms     219.86 ms     406.58 ms
 | | | | | |- sirius::Beta_projectors_base::prepare                       21     223.23 us       0.00       0.00      10.70 us       9.99 us      11.65 us
 | | | | | |- sirius::Beta_projectors_base::generate                      42      93.65 ms       0.06       1.78       2.23 ms       2.19 ms       2.27 ms
 | | | | | |- sirius::Beta_projectors_base::inner                         42        5.13 s       3.19      97.64     115.70 ms     104.19 ms     270.24 ms
 | | | | | | |- sirius::Beta_projectors_base::inner|comm                  42        2.29 s       1.42      44.61      48.64 ms      35.17 ms     202.49 ms
 | | | | | |- sirius::Beta_projectors_base::dismiss                       21      11.15 us       0.00       0.00     502.00 ns     430.00 ns     903.00 ns
 | | | | |- sirius::Density::add_k_point_contribution_rg                  21        2.09 s       1.30      12.25      98.62 ms      98.39 ms     113.69 ms
 | | | | |- sirius::Smooth_periodic_function::fft_transform               21     189.64 ms       0.12       1.11       9.03 ms       9.00 ms       9.06 ms
 | | | | |- sirius::Density::augment                                      21        6.60 s       4.11      38.78     314.23 ms     314.18 ms     314.29 ms
 | | | | | |- sirius::Density::generate_rho_aug                           21        6.59 s       4.10      99.87     313.83 ms     313.76 ms     313.88 ms
 | | |- sirius_api::sirius_get_pw_coeffs                                  21        2.72 s       1.69      13.00     115.89 ms     114.79 ms     324.90 ms
 | | | |- sirius::Smooth_periodic_function::gather_f_pw                   21        1.99 s       1.24      73.21      81.21 ms      80.41 ms     292.48 ms
 | | |- qe|sym_rho                                                        21      33.29 us       0.00       0.00       1.33 us       1.19 us       5.20 us
 | |
 | |- qe|mix                                                              21        2.21 s       1.37       1.57      88.23 ms     785.11 us     533.08 ms
 | |- sirius_api::sirius_set_pw_coeffs                                    20       10.00 s       6.23       7.11     501.74 ms     460.29 ms     546.27 ms
 | | |- sirius::Smooth_periodic_function::fft_transform                   20     189.96 ms       0.12       1.90       9.38 ms       8.99 ms      11.04 ms
 | |
 | |- qe|newd                                                             20        6.50 s       4.04       4.62     319.87 ms     319.63 ms     406.17 ms
 | | |- sirius::Potential::generate_D_operator_matrix                     20        6.46 s       4.02      99.53     318.33 ms     318.09 ms     404.64 ms
 |
 |- sirius_api::sirius_get_wave_functions                                  1        2.19 s       1.36       1.36        2.19 s        2.19 s        2.19 s
 | |- sddk::matrix_storage::matrix_storage                                 1      16.49 us       0.00       0.00      16.49 us      16.49 us      16.49 us
 |
 |- qe|ions                                                                1     407.46 ms       0.25       0.25     407.46 ms     407.46 ms     407.46 ms
 | |- sirius_api::sirius_set_pw_coeffs                                     1     405.89 ms       0.25      99.61     405.89 ms     405.89 ms     405.89 ms
 | | |- sirius::Smooth_periodic_function::fft_transform                    1      10.49 ms       0.01       2.58      10.49 ms      10.49 ms      10.49 ms
 |
 |- qe|punch                                                               1       1.12 us       0.00       0.00       1.12 us       1.12 us       1.12 us
 |- sirius::finalize                                                       1     111.22 ms       0.07       0.07     111.22 ms     111.22 ms     111.22 ms

Batch Job Summary Report for Job "test_scf" (20934930) on daint
2020-03-10T15:12:34 2020-03-10T15:12:34 2020-03-10T15:17:17 2020-03-10T15:20:55   00:03:38   00:20:00
Username    Account     Partition   NNodes   Energy
antonk      csstaff     normal          16        0 joules
gpusecs  maxgpusecs        maxmem            summem
   1458        1458    6083837952      105509814272
Scratch File System        Files       Quota
/scratch/snx3000            2651     1000000