     Program PWSCF v.6.5 starts on 10Mar2020 at 13:53:41

     R & G space division:  proc/nbgrp/npool/nimage =     144
     Reading input from pw.in
     Message from routine read_cards :
     DEPRECATED: no units specified in CELL_PARAMETERS card
Warning: card 1 1 1  0 0 0 ignored

     Current dimensions of program PWSCF are:
     Max number of different atomic species (ntypx) = 10
     Max number of k-points (npk) =  40000
     Max angular momentum in pseudopotentials (lmaxx) =  3
     Message from routine cell_base_init:
     DEPRECATED: use true lattice parameter, not A to a.u. conversion factor

     gamma-point specific algorithms are used

     Message from routine setup:
     using ibrav=0 with symmetry is DISCOURAGED, use correct ibrav instead

     bravais-lattice index     =            0
     lattice parameter (alat)  =       1.0000  a.u.
     unit-cell volume          =   69174.1805 (a.u.)^3
     number of atoms/cell      =          512
     number of atomic types    =            2
     number of electrons       =      2058.00
     number of Kohn-Sham states=         1235
     kinetic-energy cutoff     =      40.0000  Ry
     charge density cutoff     =     600.0000  Ry
     convergence threshold     =      1.0E-10
     mixing beta               =       0.7000
     number of iterations used =            8  plain     mixing
     Exchange-correlation= SLA  PZ   NOGX NOGC
                           (   1   1   0   0   0   0   0)

     celldm(1)=   1.000000  celldm(2)=   0.000000  celldm(3)=   0.000000
     celldm(4)=   0.000000  celldm(5)=   0.000000  celldm(6)=   0.000000

     crystal axes: (cart. coord. in units of alat)
               a(1) = (  41.050143   0.000000   0.000000 )
               a(2) = (   0.000000  41.050143   0.000000 )
               a(3) = (   0.000000   0.000000  41.050143 )

     reciprocal axes: (cart. coord. in units 2 pi/alat)
               b(1) = (  0.024360  0.000000  0.000000 )
               b(2) = (  0.000000  0.024360  0.000000 )
               b(3) = (  0.000000  0.000000  0.024360 )

     PseudoPot. # 1 for Ge read from file:
     ./ge_lda_v1.uspp.F.UPF
     MD5 check sum: 575f587c0f86b3eee266efe92ef02c15
     Pseudo is Ultrasoft + core correction, Zval = 14.0
     Generated by new atomic code, or converted to UPF format
     Using radial grid of  873 points,  6 beta functions with:
                l(1) =   0
                l(2) =   0
                l(3) =   1
                l(4) =   1
                l(5) =   2
                l(6) =   2
     Q(r) pseudized with  8 coefficients,  rinner =    1.400   1.400   1.400
                                                       1.400   1.400

     PseudoPot. # 2 for Si read from file:
     ./si_lda_v1.uspp.F.UPF
     MD5 check sum: ca10e49b2835512e91ee5100d37237e0
     Pseudo is Ultrasoft + core correction, Zval =  4.0
     Generated by new atomic code, or converted to UPF format
     Using radial grid of  899 points,  6 beta functions with:
                l(1) =   0
                l(2) =   0
                l(3) =   1
                l(4) =   1
                l(5) =   2
                l(6) =   2
     Q(r) pseudized with  8 coefficients,  rinner =    0.900   0.900   0.900
                                                       0.900   0.900

     atomic species   valence    mass     pseudopotential
        Ge            14.00    72.61000     Ge( 1.00)
        Si             4.00    28.08550     Si( 1.00)

     24 Sym. Ops. (no inversion) found

   Cartesian axes

     site n.     atom                  positions (alat units)
         1           Ge  tau(   1) = (   0.0000000   0.0000000   0.0000000  )
         2           Si  tau(   2) = (  20.5250715  20.5250715  20.5250715  )
         3           Si  tau(   3) = (  20.5250715  20.5250715  30.7876073  )
         4           Si  tau(   4) = (  20.5250715  20.5250715   0.0000000  )
         5           Si  tau(   5) = (  20.5250715  20.5250715  10.2625357  )
         6           Si  tau(   6) = (  20.5250715  30.7876073  20.5250715  )
         7           Si  tau(   7) = (  20.5250715  30.7876073  30.7876073  )
         8           Si  tau(   8) = (  20.5250715  30.7876073   0.0000000  )
         9           Si  tau(   9) = (  20.5250715  30.7876073  10.2625357  )
        10           Si  tau(  10) = (  20.5250715   0.0000000  20.5250715  )
        11           Si  tau(  11) = (  20.5250715   0.0000000  30.7876073  )
        12           Si  tau(  12) = (  20.5250715   0.0000000   0.0000000  )
        13           Si  tau(  13) = (  20.5250715   0.0000000  10.2625357  )
        14           Si  tau(  14) = (  20.5250715  10.2625357  20.5250715  )
        15           Si  tau(  15) = (  20.5250715  10.2625357  30.7876073  )
        16           Si  tau(  16) = (  20.5250715  10.2625357   0.0000000  )
        17           Si  tau(  17) = (  20.5250715  10.2625357  10.2625357  )
        18           Si  tau(  18) = (  30.7876073  20.5250715  20.5250715  )
        19           Si  tau(  19) = (  30.7876073  20.5250715  30.7876073  )
        20           Si  tau(  20) = (  30.7876073  20.5250715   0.0000000  )
        21           Si  tau(  21) = (  30.7876073  20.5250715  10.2625357  )
        22           Si  tau(  22) = (  30.7876073  30.7876073  20.5250715  )
        23           Si  tau(  23) = (  30.7876073  30.7876073  30.7876073  )
        24           Si  tau(  24) = (  30.7876073  30.7876073   0.0000000  )
        25           Si  tau(  25) = (  30.7876073  30.7876073  10.2625357  )
        26           Si  tau(  26) = (  30.7876073   0.0000000  20.5250715  )
        27           Si  tau(  27) = (  30.7876073   0.0000000  30.7876073  )
        28           Si  tau(  28) = (  30.7876073   0.0000000   0.0000000  )
        29           Si  tau(  29) = (  30.7876073   0.0000000  10.2625357  )
        30           Si  tau(  30) = (  30.7876073  10.2625357  20.5250715  )
        31           Si  tau(  31) = (  30.7876073  10.2625357  30.7876073  )
        32           Si  tau(  32) = (  30.7876073  10.2625357   0.0000000  )
        33           Si  tau(  33) = (  30.7876073  10.2625357  10.2625357  )
        34           Si  tau(  34) = (   0.0000000  20.5250715  20.5250715  )
        35           Si  tau(  35) = (   0.0000000  20.5250715  30.7876073  )
        36           Si  tau(  36) = (   0.0000000  20.5250715   0.0000000  )
        37           Si  tau(  37) = (   0.0000000  20.5250715  10.2625357  )
        38           Si  tau(  38) = (   0.0000000  30.7876073  20.5250715  )
        39           Si  tau(  39) = (   0.0000000  30.7876073  30.7876073  )
        40           Si  tau(  40) = (   0.0000000  30.7876073   0.0000000  )
        41           Si  tau(  41) = (   0.0000000  30.7876073  10.2625357  )
        42           Si  tau(  42) = (   0.0000000   0.0000000  20.5250715  )
        43           Si  tau(  43) = (   0.0000000   0.0000000  30.7876073  )
        44           Si  tau(  44) = (   0.0000000   0.0000000  10.2625357  )
        45           Si  tau(  45) = (   0.0000000  10.2625357  20.5250715  )
        46           Si  tau(  46) = (   0.0000000  10.2625357  30.7876073  )
        47           Si  tau(  47) = (   0.0000000  10.2625357   0.0000000  )
        48           Si  tau(  48) = (   0.0000000  10.2625357  10.2625357  )
        49           Si  tau(  49) = (  10.2625357  20.5250715  20.5250715  )
        50           Si  tau(  50) = (  10.2625357  20.5250715  30.7876073  )
        51           Si  tau(  51) = (  10.2625357  20.5250715   0.0000000  )
        52           Si  tau(  52) = (  10.2625357  20.5250715  10.2625357  )
        53           Si  tau(  53) = (  10.2625357  30.7876073  20.5250715  )
        54           Si  tau(  54) = (  10.2625357  30.7876073  30.7876073  )
        55           Si  tau(  55) = (  10.2625357  30.7876073   0.0000000  )
        56           Si  tau(  56) = (  10.2625357  30.7876073  10.2625357  )
        57           Si  tau(  57) = (  10.2625357   0.0000000  20.5250715  )
        58           Si  tau(  58) = (  10.2625357   0.0000000  30.7876073  )
        59           Si  tau(  59) = (  10.2625357   0.0000000   0.0000000  )
        60           Si  tau(  60) = (  10.2625357   0.0000000  10.2625357  )
[...]
       498           Si  tau( 498) = (  12.8281697  23.0907054  33.3532412  )
       499           Si  tau( 499) = (  12.8281697  23.0907054   2.5656339  )
       500           Si  tau( 500) = (  12.8281697  23.0907054  12.8281697  )
       501           Si  tau( 501) = (  12.8281697  33.3532412  23.0907054  )
       502           Si  tau( 502) = (  12.8281697  33.3532412  33.3532412  )
       503           Si  tau( 503) = (  12.8281697  33.3532412   2.5656339  )
       504           Si  tau( 504) = (  12.8281697  33.3532412  12.8281697  )
       505           Si  tau( 505) = (  12.8281697   2.5656339  23.0907054  )
       506           Si  tau( 506) = (  12.8281697   2.5656339  33.3532412  )
       507           Si  tau( 507) = (  12.8281697   2.5656339   2.5656339  )
       508           Si  tau( 508) = (  12.8281697   2.5656339  12.8281697  )
       509           Si  tau( 509) = (  12.8281697  12.8281697  23.0907054  )
       510           Si  tau( 510) = (  12.8281697  12.8281697  33.3532412  )
       511           Si  tau( 511) = (  12.8281697  12.8281697   2.5656339  )
       512           Si  tau( 512) = (  12.8281697  12.8281697  12.8281697  )

     number of k points=     1  Gaussian smearing, width (Ry)=  0.0010
                       cart. coord. in units 2pi/alat
        k(    1) = (   0.0000000   0.0000000   0.0000000), wk =   2.0000000

     Initial potential from superposition of free atoms

     starting charge 2057.69115, renormalised to 2058.00000
     Starting wfcs are 2053 randomized atomic wfcs

     Self-consistent Calculation

     iteration #  1     ecut=    40.00 Ry     beta= 0.70
     Davidson diagonalization with overlap
     ethr =  1.00E-02,  avg # of iterations =  3.0

     Threshold (ethr) on eigenvalues was too large:
     Diagonalizing with lowered threshold

     Davidson diagonalization with overlap
     ethr =  7.24E-04,  avg # of iterations =  2.0

     total energy              =   -5127.32416990 Ry
     estimated scf accuracy    <      14.75211085 Ry

     Band energy sum           =      64.58941057 Ry

[...]

     total energy              =   -5128.14960992 Ry
     estimated scf accuracy    <          2.7E-10 Ry

[...]

     iteration # 21     ecut=    40.00 Ry     beta= 0.70
     Davidson diagonalization with overlap
     ethr =  1.00E-13,  avg # of iterations =  1.0

     End of self-consistent calculation

          k = 0.0000 0.0000 0.0000 (147954 PWs)   bands (ev):

   -18.3118 -18.3118 -18.3118 -18.2816 -18.2816  -5.9524  -5.7031  -5.6750
    -5.6750  -5.6750  -5.6749  -5.6749  -5.4554  -5.4078  -5.4078  -5.4078
    -5.4075  -5.4075  -5.4075  -5.4075  -5.4075  -5.4075  -5.4075  -5.4075
    -5.1772  -5.1482  -5.1482  -5.1482  -5.1480  -5.1479  -5.1479  -5.1479
    -4.8936  -4.8663  -4.8663  -4.8663  -4.8661  -4.8661  -4.7049  -4.6194
    -4.6194  -4.6194  -4.6184  -4.6184  -4.6184  -4.6184  -4.6184  -4.6184
    -4.6184  -4.6184  -4.6183  -4.6183  -4.6183  -4.6183  -4.6183  -4.6183
    -4.6183  -4.6183  -4.6183  -4.6182  -4.6182  -4.6182  -4.4473  -4.3916
    -4.3916  -4.3916  -4.3906  -4.3906  -4.3906  -4.3906  -4.3906  -4.3906
    -4.3906  -4.3906  -4.3906  -4.3905  -4.3905  -4.3905  -4.3905  -4.3905
    -4.3905  -4.3905  -4.3905  -4.3905  -4.3905  -4.3905  -3.9577  -3.9036
    -3.9036  -3.9036  -3.9030  -3.9030  -3.9030  -3.9030  -3.9030  -3.9030
    -3.9030  -3.9030  -3.8270  -3.7726  -3.7726  -3.7726  -3.7717  -3.7717
    -3.7717  -3.7717  -3.7717  -3.7717  -3.7717  -3.7717  -3.7717  -3.7717
    -3.7717  -3.7717  -3.7717  -3.7717  -3.7717  -3.7717  -3.7717  -3.7716
    -3.7716  -3.7716  -3.6233  -3.6112  -3.6112  -3.6112  -3.5672  -3.5545
    -3.5545  -3.5545  -3.5541  -3.5541  -3.4198  -3.3561  -3.3561  -3.3561
    -3.3547  -3.3547  -3.3547  -3.3547  -3.3547  -3.3547  -3.3547  -3.3547
    -3.3547  -3.3546  -3.3546  -3.3546  -3.3546  -3.3546  -3.3546  -3.3546
    -3.3546  -3.3546  -3.3546  -3.3546  -3.2676  -3.2293  -3.2293  -3.2293
    -3.2282  -3.2282  -3.2282  -3.2282  -3.2282  -3.2282  -3.2282  -3.2282
    -3.2282  -3.2282  -3.2282  -3.2282  -3.2281  -3.2281  -3.2281  -3.2281
    -3.2281  -3.2281  -3.2281  -3.2281  -3.1096  -3.0743  -3.0743  -3.0743
    -3.0737  -3.0737  -3.0737  -3.0737  -3.0737  -3.0736  -3.0736  -3.0736
    -3.0736  -3.0736  -3.0736  -3.0736  -3.0736  -3.0736  -3.0736  -3.0736
    -3.0736  -3.0736  -3.0736  -3.0736  -2.8640  -2.8294  -2.8294  -2.8294
    -2.8286  -2.8286  -2.8286  -2.8284  -2.8284  -2.8284  -2.8284  -2.8284
    -2.8284  -2.8284  -2.8284  -2.8284  -2.8284  -2.8284  -2.8284  -2.8284
    -2.8284  -2.8284  -2.8284  -2.8284  -2.2393  -2.2149  -2.2149  -2.2149
    -2.2147  -2.2147  -2.2147  -2.2146  -2.2146  -2.2146  -2.2145  -2.2145
    -1.8283  -1.8062  -1.8062  -1.8062  -1.8058  -1.8058  -1.7666  -1.7277
    -1.7277  -1.7277  -1.7265  -1.7265  -1.7265  -1.7265  -1.7265  -1.7265
    -1.7264  -1.7264  -1.7264  -1.7264  -1.7264  -1.7264  -1.7264  -1.7264
    -1.7264  -1.7264  -1.7264  -1.7264  -1.7264  -1.7264  -1.6529  -1.6393
    -1.6393  -1.6393  -1.6390  -1.6390  -1.6390  -1.6389  -1.6389  -1.6389
    -1.6389  -1.6389  -1.2379  -1.2183  -1.2183  -1.2183  -1.2177  -1.2177
    -1.2177  -1.2176  -1.2176  -1.2176  -1.2176  -1.2176  -0.9823  -0.9786
    -0.9786  -0.9786  -0.8216  -0.7900  -0.7900  -0.7900  -0.7875  -0.7875
    -0.7875  -0.7875  -0.7875  -0.7874  -0.7874  -0.7874  -0.7874  -0.7874
    -0.7874  -0.7874  -0.7874  -0.7874  -0.7874  -0.7874  -0.7874  -0.7873
    -0.7873  -0.7873  -0.6022  -0.5614  -0.5614  -0.5614  -0.5605  -0.5605
    -0.5605  -0.5604  -0.5604  -0.5604  -0.5604  -0.5603  -0.5603  -0.5603
    -0.5603  -0.5603  -0.5603  -0.5603  -0.5603  -0.5603  -0.5603  -0.5602
    -0.5602  -0.5602  -0.4238  -0.3853  -0.3853  -0.3853  -0.3818  -0.3817
    -0.3817  -0.3817  -0.3816  -0.3816  -0.3816  -0.3816  -0.3816  -0.3816
    -0.3816  -0.3816  -0.3816  -0.3816  -0.3816  -0.3816  -0.3816  -0.3814
    -0.3814  -0.3814  -0.3804  -0.3795  -0.3795  -0.3795  -0.3790  -0.3790
    -0.3790  -0.3789  -0.3789  -0.3789  -0.3789  -0.3789  -0.3789  -0.3789
    -0.3789  -0.3789  -0.3788  -0.3788  -0.3788  -0.3788  -0.3788  -0.3786
    -0.3786  -0.3786   0.0115   0.0435   0.0435   0.0435   0.0440   0.0440
     0.0440   0.0441   0.0441   0.0441   0.0441   0.0441   0.0441   0.0441
     0.0441   0.0441   0.0441   0.0441   0.0441   0.0441   0.0441   0.0443
     0.0443   0.0443   0.2541   0.2616   0.2616   0.2616   0.2617   0.2617
     0.5091   0.5232   0.5232   0.5232   0.5236   0.5236   0.5236   0.5238
     0.5238   0.5241   0.5241   0.5241   0.6933   0.7110   0.7110   0.7110
     0.7127   0.7129   0.7129   0.7129   0.7129   0.7129   0.7129   0.7129
     0.7129   0.7129   0.7129   0.7129   0.7129   0.7129   0.7129   0.7130
     0.7130   0.7137   0.7137   0.7137   1.6829   1.6829   1.6829   1.6833
     1.6844   1.6844   1.6844   1.6844   1.6844   1.6844   1.6845   1.6847
     1.6847   1.7116   1.7116   1.7116   1.7122   1.7122   1.7122   1.7122
[...]
     7.8996   7.9000   7.9000   7.9000   7.9001   7.9001   7.9001   7.9001
     7.9001   7.9001   7.9001   7.9001   7.9001   7.9005   7.9005   7.9005
     7.9062   7.9062   7.9068   7.9068   7.9068   7.9289   7.9369   7.9374
     7.9374   7.9374   7.9397   7.9397   7.9397   7.9661   7.9673   7.9673
     7.9690   7.9690   7.9690   8.1630   8.1791   8.1796   8.1796   8.1796
     8.1797   8.1797   8.1797   8.1798   8.1798   8.1798   8.1798   8.1798
     8.1799   8.1799   8.1799   8.1804   8.1804   8.1804   8.1835   8.1835
     8.1853   8.1853   8.1853   8.2636   8.2846   8.2846   8.2846   8.2847
     8.2847   8.2847   8.2849   8.2849   8.2849   8.2849   8.2849   8.2849
     8.2849   8.2849   8.2849   8.2853   8.2853   8.2853   8.2874   8.2874
     8.2908   8.2908   8.2908   8.3765   8.3829   8.3829   8.3829   8.3832
     8.3832   8.3832   8.3849   8.3849   8.3850   8.3856   8.3856   8.3907
     8.3937   8.3937   8.3938   8.3940   8.3940   8.3940   8.3941   8.3941
     8.3941   8.3942   8.3942   8.3942   8.3949   8.3950   8.3951   8.3965
     8.3965   8.4021   8.4027

     the Fermi energy is     6.3386 ev

!    total energy              =   -5128.14960992 Ry
     estimated scf accuracy    <          7.8E-11 Ry
     smearing contrib. (-TS)   =      -0.00000000 Ry
     internal energy E=F+TS    =   -5128.14960992 Ry

     The total energy is F=E-TS. E is the sum of the following terms:
     one-electron contribution =    1072.71934901 Ry
     hartree contribution      =     404.47259601 Ry
     xc contribution           =   -2256.46258922 Ry
     ewald contribution        =   -4348.87896572 Ry

     Band energy sum           =     128.32665671 Ry

     convergence has been achieved in  21 iterations

     evp_work_count :  1343.417903

     General routines

     Parallel routines

   This run was terminated on:  13:57:58  10Mar2020

   JOB DONE.

Batch Job Summary Report for Job "test_scf" (20932747) on daint
2020-03-10T13:53:10 2020-03-10T13:53:10 2020-03-10T13:53:20 2020-03-10T13:57:59   00:04:39   00:20:00
Username    Account     Partition   NNodes   Energy
antonk      csstaff     normal          36        0 joules

This job did not utilize any GPUs

Scratch File System        Files       Quota
/scratch/snx3000            5090     1000000