     Program PWSCF v.6.2 starts on 14Nov2017 at 15:21:13

     K-points division:     npool     =      10
     Reading input from pw.in
     Message from routine read_cards :
     DEPRECATED: no units specified in CELL_PARAMETERS card
SIRIUS 4.10, git hash: 1860c229417ed8af1d8d9b2917528f9b0898187f

     Current dimensions of program PWSCF are:
     Max number of different atomic species (ntypx) = 10
     Max number of k-points (npk) =  40000
     Max angular momentum in pseudopotentials (lmaxx) =  3

     Subspace diagonalization in iterative solution of the eigenvalue problem:
     a serial algorithm will be used

     bravais-lattice index     =            0
     lattice parameter (alat)  =       1.0000  a.u.
     unit-cell volume          =    8646.7719 (a.u.)^3
     number of atoms/cell      =           64
     number of atomic types    =            2
     number of electrons       =       266.00
     number of Kohn-Sham states=          160
     kinetic-energy cutoff     =      40.0000  Ry
     charge density cutoff     =     300.0000  Ry
     convergence threshold     =      1.0E-10
     mixing beta               =       0.7000
     number of iterations used =            8  plain     mixing
     Exchange-correlation      = SLA  PZ   NOGX NOGC ( 1  1  0  0 0 0)
     nstep                     =          100

     celldm(1)=   1.000000  celldm(2)=   0.000000  celldm(3)=   0.000000
     celldm(4)=   0.000000  celldm(5)=   0.000000  celldm(6)=   0.000000

     crystal axes: (cart. coord. in units of alat)
               a(1) = (  20.525071   0.000000   0.000000 )
               a(2) = (   0.000000  20.525071   0.000000 )
               a(3) = (   0.000000   0.000000  20.525071 )

     reciprocal axes: (cart. coord. in units 2 pi/alat)
               b(1) = (  0.048721  0.000000  0.000000 )
               b(2) = (  0.000000  0.048721  0.000000 )
               b(3) = (  0.000000  0.000000  0.048721 )

     PseudoPot. # 1 for Ge read from file:
     ./ge_lda_v1.uspp.F.UPF
     MD5 check sum: 575f587c0f86b3eee266efe92ef02c15
     Pseudo is Ultrasoft + core correction, Zval = 14.0
     Generated by new atomic code, or converted to UPF format
     Using radial grid of  873 points,  6 beta functions with:
                l(1) =   0
                l(2) =   0
                l(3) =   1
                l(4) =   1
                l(5) =   2
                l(6) =   2
     Q(r) pseudized with  8 coefficients,  rinner =    1.400   1.400   1.400
                                                       1.400   1.400

     PseudoPot. # 2 for Si read from file:
     ./si_lda_v1.uspp.F.UPF
     MD5 check sum: ca10e49b2835512e91ee5100d37237e0
     Pseudo is Ultrasoft + core correction, Zval =  4.0
     Generated by new atomic code, or converted to UPF format
     Using radial grid of  899 points,  6 beta functions with:
                l(1) =   0
                l(2) =   0
                l(3) =   1
                l(4) =   1
                l(5) =   2
                l(6) =   2
     Q(r) pseudized with  8 coefficients,  rinner =    0.900   0.900   0.900
                                                       0.900   0.900

     atomic species   valence    mass     pseudopotential
        Ge            14.00    72.61000     Ge( 1.00)
        Si             4.00    28.08550     Si( 1.00)

     24 Sym. Ops. (no inversion) found

                                    s                        frac. trans.

      isym =  1     identity

 cryst.   s( 1) = (     1          0          0      )
                  (     0          1          0      )
                  (     0          0          1      )

 cart.    s( 1) = (  1.0000000  0.0000000  0.0000000 )
                  (  0.0000000  1.0000000  0.0000000 )
                  (  0.0000000  0.0000000  1.0000000 )

      isym =  2     180 deg rotation - cart. axis [0,0,1]

[...]

 cryst.   s(10) = (     0         -1          0      )
                  (     0          0         -1      )
                  (     1          0          0      )

 cart.    s(10) = (  0.0000000  0.0000000  1.0000000 )
                  ( -1.0000000  0.0000000  0.0000000 )
                  (  0.0000000 -1.0000000  0.0000000 )

[...]

      isym = 13     inv. 180 deg rotation - cart. axis [1,1,0]

[...]

   Cartesian axes

     site n.     atom                  positions (a.u.)
         1           Ge  tau(   1) = (   0.0000000   0.0000000   0.0000000  )
         2           Si  tau(   2) = (   0.0000000   0.0000000  10.2625355  )
         3           Si  tau(   3) = (   0.0000000  10.2625355   0.0000000  )
         4           Si  tau(   4) = (   0.0000000  10.2625355  10.2625355  )
         5           Si  tau(   5) = (  10.2625355   0.0000000   0.0000000  )
         6           Si  tau(   6) = (  10.2625355   0.0000000  10.2625355  )
         7           Si  tau(   7) = (  10.2625355  10.2625355   0.0000000  )
         8           Si  tau(   8) = (  10.2625355  10.2625355  10.2625355  )
         9           Si  tau(   9) = (   0.0000000   5.1312678   5.1312678  )
        10           Si  tau(  10) = (   0.0000000   5.1312678  15.3938033  )
        11           Si  tau(  11) = (   0.0000000  15.3938033   5.1312678  )
        12           Si  tau(  12) = (   0.0000000  15.3938033  15.3938033  )
        13           Si  tau(  13) = (  10.2625355   5.1312678   5.1312678  )
        14           Si  tau(  14) = (  10.2625355   5.1312678  15.3938033  )
        15           Si  tau(  15) = (  10.2625355  15.3938033   5.1312678  )
        16           Si  tau(  16) = (  10.2625355  15.3938033  15.3938033  )
        17           Si  tau(  17) = (   5.1312678   0.0000000   5.1312678  )
        18           Si  tau(  18) = (   5.1312678   0.0000000  15.3938033  )
        19           Si  tau(  19) = (   5.1312678  10.2625355   5.1312678  )
        20           Si  tau(  20) = (   5.1312678  10.2625355  15.3938033  )
        21           Si  tau(  21) = (  15.3938033   0.0000000   5.1312678  )
        22           Si  tau(  22) = (  15.3938033   0.0000000  15.3938033  )
        23           Si  tau(  23) = (  15.3938033  10.2625355   5.1312678  )
        24           Si  tau(  24) = (  15.3938033  10.2625355  15.3938033  )
        25           Si  tau(  25) = (   5.1312678   5.1312678   0.0000000  )
        26           Si  tau(  26) = (   5.1312678   5.1312678  10.2625355  )
        27           Si  tau(  27) = (   5.1312678  15.3938033   0.0000000  )
        28           Si  tau(  28) = (   5.1312678  15.3938033  10.2625355  )
        29           Si  tau(  29) = (  15.3938033   5.1312678   0.0000000  )
        30           Si  tau(  30) = (  15.3938033   5.1312678  10.2625355  )
        31           Si  tau(  31) = (  15.3938033  15.3938033   0.0000000  )
        32           Si  tau(  32) = (  15.3938033  15.3938033  10.2625355  )
        33           Si  tau(  33) = (   7.6969016   7.6969016   2.5656339  )
        34           Si  tau(  34) = (   7.6969016   7.6969016  12.8281694  )
        35           Si  tau(  35) = (   7.6969016  17.9594371   2.5656339  )
        36           Si  tau(  36) = (   7.6969016  17.9594371  12.8281694  )
        37           Si  tau(  37) = (  17.9594371   7.6969016   2.5656339  )
        38           Si  tau(  38) = (  17.9594371   7.6969016  12.8281694  )
        39           Si  tau(  39) = (  17.9594371  17.9594371   2.5656339  )
        40           Si  tau(  40) = (  17.9594371  17.9594371  12.8281694  )
        41           Si  tau(  41) = (   7.6969016   2.5656339   7.6969016  )
        42           Si  tau(  42) = (   7.6969016   2.5656339  17.9594371  )
        43           Si  tau(  43) = (   7.6969016  12.8281694   7.6969016  )
        44           Si  tau(  44) = (   7.6969016  12.8281694  17.9594371  )
        45           Si  tau(  45) = (  17.9594371   2.5656339   7.6969016  )
        46           Si  tau(  46) = (  17.9594371   2.5656339  17.9594371  )
        47           Si  tau(  47) = (  17.9594371  12.8281694   7.6969016  )
        48           Si  tau(  48) = (  17.9594371  12.8281694  17.9594371  )
        49           Si  tau(  49) = (   2.5656339   7.6969016   7.6969016  )
        50           Si  tau(  50) = (   2.5656339   7.6969016  17.9594371  )
        51           Si  tau(  51) = (   2.5656339  17.9594371   7.6969016  )
        52           Si  tau(  52) = (   2.5656339  17.9594371  17.9594371  )
        53           Si  tau(  53) = (  12.8281694   7.6969016   7.6969016  )
        54           Si  tau(  54) = (  12.8281694   7.6969016  17.9594371  )
        55           Si  tau(  55) = (  12.8281694  17.9594371   7.6969016  )
        56           Si  tau(  56) = (  12.8281694  17.9594371  17.9594371  )
        57           Si  tau(  57) = (   2.5656339   2.5656339   2.5656339  )
        58           Si  tau(  58) = (   2.5656339   2.5656339  12.8281694  )
        59           Si  tau(  59) = (   2.5656339  12.8281694   2.5656339  )
        60           Si  tau(  60) = (   2.5656339  12.8281694  12.8281694  )
        61           Si  tau(  61) = (  12.8281694   2.5656339   2.5656339  )
        62           Si  tau(  62) = (  12.8281694   2.5656339  12.8281694  )
        63           Si  tau(  63) = (  12.8281694  12.8281694   2.5656339  )
        64           Si  tau(  64) = (  12.8281694  12.8281694  12.8281694  )

   Crystallographic axes

     site n.     atom                  positions (cryst. coord.)
         1           Ge  tau(   1) = (  0.0000000  0.0000000  0.0000000  )
         2           Si  tau(   2) = (  0.0000000  0.0000000  0.5000000  )
         3           Si  tau(   3) = (  0.0000000  0.5000000  0.0000000  )
         4           Si  tau(   4) = (  0.0000000  0.5000000  0.5000000  )
         5           Si  tau(   5) = (  0.5000000  0.0000000  0.0000000  )
         6           Si  tau(   6) = (  0.5000000  0.0000000  0.5000000  )
         7           Si  tau(   7) = (  0.5000000  0.5000000  0.0000000  )
         8           Si  tau(   8) = (  0.5000000  0.5000000  0.5000000  )
         9           Si  tau(   9) = (  0.0000000  0.2500000  0.2500000  )
        10           Si  tau(  10) = (  0.0000000  0.2500000  0.7500000  )
        11           Si  tau(  11) = (  0.0000000  0.7500000  0.2500000  )
        12           Si  tau(  12) = (  0.0000000  0.7500000  0.7500000  )
        13           Si  tau(  13) = (  0.5000000  0.2500000  0.2500000  )
        14           Si  tau(  14) = (  0.5000000  0.2500000  0.7500000  )
        15           Si  tau(  15) = (  0.5000000  0.7500000  0.2500000  )
        16           Si  tau(  16) = (  0.5000000  0.7500000  0.7500000  )
        17           Si  tau(  17) = (  0.2500000  0.0000000  0.2500000  )
        18           Si  tau(  18) = (  0.2500000  0.0000000  0.7500000  )
        19           Si  tau(  19) = (  0.2500000  0.5000000  0.2500000  )
        20           Si  tau(  20) = (  0.2500000  0.5000000  0.7500000  )
        21           Si  tau(  21) = (  0.7500000  0.0000000  0.2500000  )
        22           Si  tau(  22) = (  0.7500000  0.0000000  0.7500000  )
        23           Si  tau(  23) = (  0.7500000  0.5000000  0.2500000  )
[...]
Si       0.375112900   0.124936827   0.375112900
Si       0.374994992   0.124969026   0.875030974
Si       0.374995115   0.625004885   0.374995115
Si       0.375112900   0.624887100   0.875063173
Si       0.875030974   0.124969026   0.374994992
Si       0.873393989   0.126606011   0.873393989
Si       0.875063173   0.624887100   0.375112900
Si       0.875030974   0.625005008   0.875030974
Si       0.124936827   0.375112900   0.375112900
Si       0.124969026   0.374994992   0.875030974
Si       0.124969026   0.875030974   0.374994992
Si       0.126606011   0.873393989   0.873393989
Si       0.625004885   0.374995115   0.374995115
Si       0.624887100   0.375112900   0.875063173
Si       0.624887100   0.875063173   0.375112900
Si       0.625005008   0.875030974   0.875030974
Si       0.126606011   0.126606011   0.126606011
Si       0.124969026   0.124969026   0.625005008
Si       0.124969026   0.625005008   0.124969026
Si       0.124936827   0.624887100   0.624887100
Si       0.625005008   0.124969026   0.124969026
Si       0.624887100   0.124936827   0.624887100
Si       0.624887100   0.624887100   0.124936827
Si       0.625004885   0.625004885   0.625004885
End final coordinates

name                                                                 count      total        min        max    average    self (%)
qe|electrons                                                      :      6   124.3578    18.8446    21.7535    20.7263       0.00
qe|electrons|init                                                 :      6     8.3851     1.3227     1.6210     1.3975      18.22
qe|electrons|scf                                                  :      6   115.8886    17.2067    20.3765    19.3148       5.69
qe|init_run|hinit0                                                :      6     0.4382     0.0550     0.1623     0.0730       0.38
qe|init_run|hinit0|init_igk                                       :      6     0.0187     0.0029     0.0040     0.0031     100.00
qe|init_run|hinit0|init_us_1                                      :      6     0.1019     0.0004     0.0999     0.0170     100.00
qe|init_run|hinit0|struc_fact                                     :      6     0.3159     0.0517     0.0569     0.0527     100.00
qe|mix                                                            :     83    10.5628     0.0164     0.1742     0.1273     100.00
qe|run_pwscf                                                      :      1   149.3414   149.3414   149.3414   149.3414       1.12
qe|run_pwscf|electrons                                            :      6   124.3595    18.8464    21.7535    20.7266       0.00
qe|run_pwscf|forces                                               :      6     3.2480     0.5314     0.5591     0.5413      13.60
qe|run_pwscf|hinit1                                               :      5     0.4415     0.0848     0.0964     0.0883     100.00
qe|run_pwscf|init_run                                             :      6     3.6851     0.5638     0.7978     0.6142      88.11
qe|run_pwscf|ions                                                 :      6     0.9368     0.0843     0.4011     0.1561     100.00
qe|run_pwscf|setup                                                :      6     0.0829     0.0039     0.0632     0.0138     100.00
qe|run_pwscf|setup_sirius                                         :      6     5.0100     0.6134     1.8975     0.8350       3.33
qe|run_pwscf|stress                                               :      6     9.9087     1.6151     1.6730     1.6515       0.18
qe|stres_cc|deriv_drhoc                                           :     12     0.0535     0.0042     0.0049     0.0045      47.06
qe|stres_cc|drhoc                                                 :     12     0.0587     0.0039     0.0059     0.0049      56.68
qe|stress_xc                                                      :      6     0.8540     0.1411     0.1451     0.1423       0.02
qe|stress_xc|cc                                                   :      6     0.8537     0.1411     0.1448     0.1423      86.86
qe|v_ha                                                           :     89     3.2574     0.0361     0.0468     0.0366     100.00
qe|v_xc                                                           :     89     0.7778     0.0083     0.0162     0.0087     100.00
qe|veff                                                           :     83    13.3122     0.1559     0.1739     0.1604      41.48
sddk::FFT3D::FFT3D                                                :     12     0.5007     0.0037     0.4328     0.0417     100.00
sddk::FFT3D::prepare                                              :    350     0.5700     0.0014     0.0050     0.0016       0.46
sddk::FFT3D::prepare|gpu                                          :    350     0.5612     0.0014     0.0050     0.0016     100.00
sddk::FFT3D::transform                                            :  86758    28.2111     0.0003     0.0079     0.0003       0.82
sddk::FFT3D::transform_xy                                         :  86758    19.5231     0.0002     0.0007     0.0002     100.00
sddk::FFT3D::transform_z                                          :  86758     8.4558     0.0000     0.0044     0.0001       1.65
sddk::FFT3D::transform_z_serial                                   :  86758     6.1708     0.0000     0.0042     0.0001     100.00
sddk::FFT3D::transform_z|comm|d-1|DtoH                            :    119     0.0516     0.0003     0.0007     0.0004     100.00
sddk::FFT3D::transform_z|comm|d1|HtoD                             :  11425     2.0936     0.0002     0.0008     0.0002     100.00
sddk::Gvec::find_gvec_shells                                      :     18     0.3420     0.0031     0.0431     0.0190     100.00
sddk::Gvec::init                                                  :     18     0.6941     0.0061     0.0856     0.0386      50.73
sddk::matrix_storage::matrix_storage                              :    528     1.0992     0.0000     0.0441     0.0021     100.00
sddk::remap_gvec_to_shells|init                                   :      6     0.1271     0.0203     0.0239     0.0212     100.00
sddk::wave_functions::inner                                       :   1108     2.6857     0.0001     0.0089     0.0024     100.00
sddk::wave_functions::orthogonalize                               :    310     3.6396     0.0028     0.0394     0.0117      22.15
sddk::wave_functions::transform                                   :    746     4.0061     0.0012     0.0200     0.0054      99.74
sddk::wave_functions::transform|init                              :    746     0.0103     0.0000     0.0000     0.0000     100.00
sirius::Atom_type::init                                           :     12     0.0113     0.0007     0.0028     0.0009     100.00
sirius::Augmentation_operator::generate_pw_coeffs                 :     12     1.9364     0.1574     0.1786     0.1614     100.00
sirius::Augmentation_operator_gvec_deriv::generate_pw_coeffs      :     36     2.9118     0.0683     0.1286     0.0809      38.50
sirius::Augmentation_operator_gvec_deriv::generate_pw_coeffs|qpw  :     36     1.7908     0.0459     0.0958     0.0497     100.00
sirius::Augmentation_operator_gvec_deriv|constructor              :      6     0.6599     0.1097     0.1107     0.1100     100.00
sirius::Band::apply_h_o                                           :    399    38.7674     0.0110     0.4631     0.0972       0.03
sirius::Band::diag_pseudo_potential                               :     83    56.8844     0.2823     2.4374     0.6854       0.16
sirius::Band::diag_pseudo_potential_davidson                      :     83    56.5496     0.2784     2.4325     0.6813       1.33
sirius::Band::diag_pseudo_potential_davidson|alloc                :     83     1.5924     0.0184     0.0252     0.0192      86.37
sirius::Band::diag_pseudo_potential_davidson|evp                  :    393     8.3777     0.0087     0.0544     0.0213     100.00
sirius::Band::diag_pseudo_potential_davidson|iter                 :     83    52.5882     0.2322     2.3826     0.6336       0.02
sirius::Band::diag_pseudo_potential_davidson|update_phi           :     93     0.7169     0.0031     0.0269     0.0077       0.50
sirius::Band::get_h_diag                                          :     83     0.8733     0.0100     0.0149     0.0105     100.00
sirius::Band::get_o_diag                                          :     83     0.7213     0.0086     0.0128     0.0087     100.00
sirius::Band::initialize_subspace                                 :      6     4.8513     0.7764     0.9325     0.8086       5.01
sirius::Band::initialize_subspace|kp                              :      6     4.5094     0.7207     0.8728     0.7516      11.50
sirius::Band::initialize_subspace|kp|wf                           :      6     0.2800     0.0449     0.0518     0.0467     100.00
sirius::Band::residuals                                           :    388     2.0072     0.0000     0.0201     0.0052       2.85
sirius::Band::residuals_aux                                       :    327     0.4414     0.0005     0.0021     0.0013     100.00
sirius::Band::set_subspace_mtrx                                   :    488     1.7237     0.0007     0.0098     0.0035       6.50
sirius::Band::solve_for_kset                                      :     83    70.0553     0.3062     2.9390     0.8440      16.93
sirius::Beta_projectors::Beta_projectors                          :      6     0.0317     0.0052     0.0058     0.0053       0.10
sirius::Beta_projectors::generate_pw_coefs_t                      :      6     0.0317     0.0052     0.0058     0.0053     100.00
sirius::Beta_projectors_base::dismiss                             :    196     0.0440     0.0000     0.0018     0.0002     100.00
sirius::Beta_projectors_base::generate                            :    566     4.9313     0.0029     0.2002     0.0087     100.00
sirius::Beta_projectors_base::inner                               :    566     6.4326     0.0017     0.0385     0.0114     100.00
sirius::Beta_projectors_base::prepare                             :    196     0.6512     0.0024     0.0226     0.0033     100.00
sirius::Beta_projectors_strain_deriv::generate_pw_coefs_t         :      6     0.5471     0.0908     0.0926     0.0912     100.00
sirius::DFT_ground_state::ewald_energy                            :      6     0.0158     0.0024     0.0033     0.0026     100.00
sirius::Density::add_k_point_contribution_dm                      :     83     1.8620     0.0210     0.0243     0.0224       9.65
sirius::Density::add_k_point_contribution_rg                      :     83     5.9137     0.0690     0.0759     0.0712       4.15
sirius::Density::augment                                          :     83     1.7482     0.0209     0.0237     0.0211       0.44
sirius::Density::generate_pseudo_core_charge_density              :      6     0.1574     0.0221     0.0333     0.0262       1.38
sirius::Density::generate_rho_aug                                 :     83     1.7405     0.0208     0.0236     0.0210     100.00
sirius::Density::generate_valence                                 :     83    11.9214     0.1362     0.1749     0.1436      15.46
sirius::Density::initial_density                                  :      6     0.2993     0.0470     0.0547     0.0499      45.44
sirius::Forces_PS::calc_ewald_forces                              :      6     0.1291     0.0205     0.0227     0.0215     100.00
sirius::Forces_PS::calc_local_forces                              :      6     0.1759     0.0284     0.0300     0.0293      50.76
sirius::Forces_PS::calc_nlcc_force                                :      6     0.1199     0.0186     0.0254     0.0200      53.34
sirius::Forces_PS::calc_nonlocal_forces                           :      6     1.9171     0.3151     0.3302     0.3195      19.38
sirius::Forces_PS::calc_scf_corr_forces                           :      6     0.0792     0.0106     0.0178     0.0132      85.36
sirius::Forces_PS::calc_ultrasoft_forces                          :      6     0.2870     0.0472     0.0497     0.0478      84.64
sirius::K_point::generate_gkvec                                   :      6     0.0372     0.0061     0.0065     0.0062       0.26
sirius::K_point::initialize                                       :      6     0.2065     0.0245     0.0497     0.0344      15.27
sirius::K_point_set::sync_band_energies                           :     83     0.0551     0.0000     0.0053     0.0007     100.00
sirius::Local_operator::apply_h                                   :    399    24.3834     0.0006     0.1734     0.0611      10.30
sirius::Local_operator::prepare                                   :    178     1.4574     0.0012     0.0218     0.0082      59.86
sirius::Non_local_operator::apply                                 :    798     8.0205     0.0027     0.0251     0.0101     100.00
sirius::Periodic_function::inner                                  :    279     0.1968     0.0003     0.0021     0.0007      60.57
sirius::Potential::Potential                                      :      6     0.2687     0.0398     0.0574     0.0448      20.09
sirius::Potential::generate_D_operator_matrix                     :     89     1.8877     0.0201     0.0271     0.0212     100.00
sirius::Potential::generate_local_potential                       :      6     0.2145     0.0336     0.0388     0.0358       0.68
sirius::Radial_integrals|aug                                      :     12     0.5992     0.0431     0.0624     0.0499     100.00
sirius::Radial_integrals|beta                                     :     12     0.2153     0.0159     0.0270     0.0179     100.00
sirius::Radial_integrals|rho_core_pseudo                          :     42     0.0923     0.0017     0.0044     0.0022     100.00
sirius::Radial_integrals|rho_pseudo                               :     12     0.0224     0.0014     0.0025     0.0019     100.00
sirius::Radial_integrals|vloc                                     :     36     0.5174     0.0122     0.0193     0.0144     100.00
sirius::Simulation_context::initialize                            :      6     4.6176     0.5508     1.8247     0.7696       0.03
sirius::Simulation_context_base::init_atoms_to_grid_idx           :      6     0.0275     0.0043     0.0055     0.0046     100.00
sirius::Simulation_context_base::initialize                       :      6     2.6799     0.2339     1.4733     0.4466      29.99
sirius::Simulation_context_base::make_periodic_function           :     36     0.2766     0.0060     0.0097     0.0077     100.00
sirius::Simulation_parameters::import                             :      6     0.0184     0.0013     0.0109     0.0031     100.00
sirius::Smooth_periodic_function::fft_transform                   :    416     3.7031     0.0029     0.0315     0.0089      80.30
sirius::Smooth_periodic_function::gather_f_pw                     :    267     0.9298     0.0010     0.0110     0.0035     100.00
sirius::Stress|ewald                                              :      6     0.1677     0.0277     0.0283     0.0280     100.00
sirius::Stress|har                                                :      6     0.0125     0.0020     0.0022     0.0021     100.00
sirius::Stress|kin                                                :      6     0.4135     0.0680     0.0717     0.0689     100.00
sirius::Stress|nonloc                                             :      6     3.3378     0.5523     0.5732     0.5563      16.93
sirius::Stress|us                                                 :      6     4.7177     0.7568     0.8097     0.7863       4.72
sirius::Stress|us|gemm                                            :    108     0.3905     0.0017     0.0055     0.0036     100.00
sirius::Stress|us|phase_fac                                       :     12     0.0285     0.0001     0.0047     0.0024     100.00
sirius::Stress|us|prepare                                         :    108     0.1238     0.0001     0.0028     0.0011     100.00
sirius::Stress|vloc                                               :      6     0.2830     0.0458     0.0500     0.0472       4.38
sirius::Unit_cell::find_nearest_neighbours                        :      6     0.0172     0.0027     0.0036     0.0029     100.00
sirius::Unit_cell::initialize                                     :      6     0.0298     0.0041     0.0093     0.0050       4.36
sirius_api::sirius_get_pw_coeffs                                  :     95     2.8290     0.0280     0.0401     0.0298      86.47
sirius_api::sirius_set_pw_coeffs                                  :    202     2.7613     0.0033     0.0308     0.0137      24.82

     General routines

     Parallel routines

   This run was terminated on:  15:23:43  14Nov2017

   JOB DONE.