     Program PWSCF v.6.2 starts on 14Nov2017 at 15:45:22

     K-points division:     npool     =       5
     Reading input from pw.in
     Message from routine read_cards :
     DEPRECATED: no units specified in CELL_PARAMETERS card
SIRIUS 4.10, git hash: 1860c229417ed8af1d8d9b2917528f9b0898187f

     Current dimensions of program PWSCF are:
     Max number of different atomic species (ntypx) = 10
     Max number of k-points (npk) =  40000
     Max angular momentum in pseudopotentials (lmaxx) =  3

     Subspace diagonalization in iterative solution of the eigenvalue problem:
     a serial algorithm will be used

     bravais-lattice index     =            0
     lattice parameter (alat)  =       1.0000  a.u.
     unit-cell volume          =    8646.7719 (a.u.)^3
     number of atoms/cell      =           64
     number of atomic types    =            2
     number of electrons       =       266.00
     number of Kohn-Sham states=          160
     kinetic-energy cutoff     =      40.0000  Ry
     charge density cutoff     =     300.0000  Ry
     convergence threshold     =      1.0E-10
     mixing beta               =       0.7000
     number of iterations used =            8  plain     mixing
     Exchange-correlation      = SLA  PZ   NOGX NOGC ( 1  1  0  0 0 0)
     nstep                     =          100

     celldm(1)=   1.000000  celldm(2)=   0.000000  celldm(3)=   0.000000
     celldm(4)=   0.000000  celldm(5)=   0.000000  celldm(6)=   0.000000

     crystal axes: (cart. coord. in units of alat)
               a(1) = (  20.525071   0.000000   0.000000 )
               a(2) = (   0.000000  20.525071   0.000000 )
               a(3) = (   0.000000   0.000000  20.525071 )

     reciprocal axes: (cart. coord. in units 2 pi/alat)
               b(1) = (  0.048721  0.000000  0.000000 )
               b(2) = (  0.000000  0.048721  0.000000 )
               b(3) = (  0.000000  0.000000  0.048721 )

     PseudoPot. # 1 for Ge read from file:
     ./ge_lda_v1.uspp.F.UPF
     MD5 check sum: 575f587c0f86b3eee266efe92ef02c15
     Pseudo is Ultrasoft + core correction, Zval = 14.0
     Generated by new atomic code, or converted to UPF format
     Using radial grid of  873 points,  6 beta functions with:
                l(1) =   0
                l(2) =   0
                l(3) =   1
                l(4) =   1
                l(5) =   2
                l(6) =   2
     Q(r) pseudized with  8 coefficients,  rinner =    1.400   1.400   1.400
                                                       1.400   1.400

     PseudoPot. # 2 for Si read from file:
     ./si_lda_v1.uspp.F.UPF
     MD5 check sum: ca10e49b2835512e91ee5100d37237e0
     Pseudo is Ultrasoft + core correction, Zval =  4.0
     Generated by new atomic code, or converted to UPF format
     Using radial grid of  899 points,  6 beta functions with:
                l(1) =   0
                l(2) =   0
                l(3) =   1
                l(4) =   1
                l(5) =   2
                l(6) =   2
     Q(r) pseudized with  8 coefficients,  rinner =    0.900   0.900   0.900
                                                       0.900   0.900

     atomic species   valence    mass     pseudopotential
        Ge            14.00    72.61000     Ge( 1.00)
        Si             4.00    28.08550     Si( 1.00)

     24 Sym. Ops. (no inversion) found

                                    s                        frac. trans.

      isym =  1     identity

 cryst.   s( 1) = (     1          0          0      )
                  (     0          1          0      )
                  (     0          0          1      )

 cart.    s( 1) = (  1.0000000  0.0000000  0.0000000 )
                  (  0.0000000  1.0000000  0.0000000 )
                  (  0.0000000  0.0000000  1.0000000 )

      isym =  2     180 deg rotation - cart. axis [0,0,1]

[...]

 cryst.   s(10) = (     0         -1          0      )
                  (     0          0         -1      )
                  (     1          0          0      )

 cart.    s(10) = (  0.0000000  0.0000000  1.0000000 )
                  ( -1.0000000  0.0000000  0.0000000 )
                  (  0.0000000 -1.0000000  0.0000000 )

[...]

      isym = 13     inv. 180 deg rotation - cart. axis [1,1,0]

[...]

   Cartesian axes

     site n.     atom                  positions (a.u.)
         1           Ge  tau(   1) = (   0.0000000   0.0000000   0.0000000  )
         2           Si  tau(   2) = (   0.0000000   0.0000000  10.2625355  )
         3           Si  tau(   3) = (   0.0000000  10.2625355   0.0000000  )
         4           Si  tau(   4) = (   0.0000000  10.2625355  10.2625355  )
         5           Si  tau(   5) = (  10.2625355   0.0000000   0.0000000  )
         6           Si  tau(   6) = (  10.2625355   0.0000000  10.2625355  )
         7           Si  tau(   7) = (  10.2625355  10.2625355   0.0000000  )
         8           Si  tau(   8) = (  10.2625355  10.2625355  10.2625355  )
         9           Si  tau(   9) = (   0.0000000   5.1312678   5.1312678  )
        10           Si  tau(  10) = (   0.0000000   5.1312678  15.3938033  )
        11           Si  tau(  11) = (   0.0000000  15.3938033   5.1312678  )
        12           Si  tau(  12) = (   0.0000000  15.3938033  15.3938033  )
        13           Si  tau(  13) = (  10.2625355   5.1312678   5.1312678  )
        14           Si  tau(  14) = (  10.2625355   5.1312678  15.3938033  )
        15           Si  tau(  15) = (  10.2625355  15.3938033   5.1312678  )
        16           Si  tau(  16) = (  10.2625355  15.3938033  15.3938033  )
        17           Si  tau(  17) = (   5.1312678   0.0000000   5.1312678  )
        18           Si  tau(  18) = (   5.1312678   0.0000000  15.3938033  )
        19           Si  tau(  19) = (   5.1312678  10.2625355   5.1312678  )
        20           Si  tau(  20) = (   5.1312678  10.2625355  15.3938033  )
        21           Si  tau(  21) = (  15.3938033   0.0000000   5.1312678  )
        22           Si  tau(  22) = (  15.3938033   0.0000000  15.3938033  )
        23           Si  tau(  23) = (  15.3938033  10.2625355   5.1312678  )
        24           Si  tau(  24) = (  15.3938033  10.2625355  15.3938033  )
        25           Si  tau(  25) = (   5.1312678   5.1312678   0.0000000  )
        26           Si  tau(  26) = (   5.1312678   5.1312678  10.2625355  )
        27           Si  tau(  27) = (   5.1312678  15.3938033   0.0000000  )
        28           Si  tau(  28) = (   5.1312678  15.3938033  10.2625355  )
        29           Si  tau(  29) = (  15.3938033   5.1312678   0.0000000  )
        30           Si  tau(  30) = (  15.3938033   5.1312678  10.2625355  )
        31           Si  tau(  31) = (  15.3938033  15.3938033   0.0000000  )
        32           Si  tau(  32) = (  15.3938033  15.3938033  10.2625355  )
        33           Si  tau(  33) = (   7.6969016   7.6969016   2.5656339  )
        34           Si  tau(  34) = (   7.6969016   7.6969016  12.8281694  )
        35           Si  tau(  35) = (   7.6969016  17.9594371   2.5656339  )
        36           Si  tau(  36) = (   7.6969016  17.9594371  12.8281694  )
        37           Si  tau(  37) = (  17.9594371   7.6969016   2.5656339  )
        38           Si  tau(  38) = (  17.9594371   7.6969016  12.8281694  )
        39           Si  tau(  39) = (  17.9594371  17.9594371   2.5656339  )
        40           Si  tau(  40) = (  17.9594371  17.9594371  12.8281694  )
        41           Si  tau(  41) = (   7.6969016   2.5656339   7.6969016  )
        42           Si  tau(  42) = (   7.6969016   2.5656339  17.9594371  )
        43           Si  tau(  43) = (   7.6969016  12.8281694   7.6969016  )
        44           Si  tau(  44) = (   7.6969016  12.8281694  17.9594371  )
        45           Si  tau(  45) = (  17.9594371   2.5656339   7.6969016  )
        46           Si  tau(  46) = (  17.9594371   2.5656339  17.9594371  )
        47           Si  tau(  47) = (  17.9594371  12.8281694   7.6969016  )
        48           Si  tau(  48) = (  17.9594371  12.8281694  17.9594371  )
        49           Si  tau(  49) = (   2.5656339   7.6969016   7.6969016  )
        50           Si  tau(  50) = (   2.5656339   7.6969016  17.9594371  )
        51           Si  tau(  51) = (   2.5656339  17.9594371   7.6969016  )
        52           Si  tau(  52) = (   2.5656339  17.9594371  17.9594371  )
        53           Si  tau(  53) = (  12.8281694   7.6969016   7.6969016  )
        54           Si  tau(  54) = (  12.8281694   7.6969016  17.9594371  )
        55           Si  tau(  55) = (  12.8281694  17.9594371   7.6969016  )
        56           Si  tau(  56) = (  12.8281694  17.9594371  17.9594371  )
        57           Si  tau(  57) = (   2.5656339   2.5656339   2.5656339  )
        58           Si  tau(  58) = (   2.5656339   2.5656339  12.8281694  )
        59           Si  tau(  59) = (   2.5656339  12.8281694   2.5656339  )
        60           Si  tau(  60) = (   2.5656339  12.8281694  12.8281694  )
        61           Si  tau(  61) = (  12.8281694   2.5656339   2.5656339  )
        62           Si  tau(  62) = (  12.8281694   2.5656339  12.8281694  )
        63           Si  tau(  63) = (  12.8281694  12.8281694   2.5656339  )
        64           Si  tau(  64) = (  12.8281694  12.8281694  12.8281694  )

   Crystallographic axes

     site n.     atom                  positions (cryst. coord.)
         1           Ge  tau(   1) = (  0.0000000  0.0000000  0.0000000  )
         2           Si  tau(   2) = (  0.0000000  0.0000000  0.5000000  )
         3           Si  tau(   3) = (  0.0000000  0.5000000  0.0000000  )
         4           Si  tau(   4) = (  0.0000000  0.5000000  0.5000000  )
         5           Si  tau(   5) = (  0.5000000  0.0000000  0.0000000  )
         6           Si  tau(   6) = (  0.5000000  0.0000000  0.5000000  )
         7           Si  tau(   7) = (  0.5000000  0.5000000  0.0000000  )
         8           Si  tau(   8) = (  0.5000000  0.5000000  0.5000000  )
         9           Si  tau(   9) = (  0.0000000  0.2500000  0.2500000  )
        10           Si  tau(  10) = (  0.0000000  0.2500000  0.7500000  )
        11           Si  tau(  11) = (  0.0000000  0.7500000  0.2500000  )
        12           Si  tau(  12) = (  0.0000000  0.7500000  0.7500000  )
        13           Si  tau(  13) = (  0.5000000  0.2500000  0.2500000  )
        14           Si  tau(  14) = (  0.5000000  0.2500000  0.7500000  )
        15           Si  tau(  15) = (  0.5000000  0.7500000  0.2500000  )
        16           Si  tau(  16) = (  0.5000000  0.7500000  0.7500000  )
        17           Si  tau(  17) = (  0.2500000  0.0000000  0.2500000  )
        18           Si  tau(  18) = (  0.2500000  0.0000000  0.7500000  )
        19           Si  tau(  19) = (  0.2500000  0.5000000  0.2500000  )
        20           Si  tau(  20) = (  0.2500000  0.5000000  0.7500000  )
        21           Si  tau(  21) = (  0.7500000  0.0000000  0.2500000  )
        22           Si  tau(  22) = (  0.7500000  0.0000000  0.7500000  )
        23           Si  tau(  23) = (  0.7500000  0.5000000  0.2500000  )
[...]
Si       0.375112903   0.624887097   0.875063176
Si       0.875030976   0.124969024   0.374994988
Si       0.873393989   0.126606011   0.873393989
Si       0.875063176   0.624887097   0.375112903
Si       0.875030976   0.625005012   0.875030976
Si       0.124936824   0.375112903   0.375112903
Si       0.124969024   0.374994988   0.875030976
Si       0.124969024   0.875030976   0.374994988
Si       0.126606011   0.873393989   0.873393989
Si       0.625004888   0.374995112   0.374995112
Si       0.624887097   0.375112903   0.875063176
Si       0.624887097   0.875063176   0.375112903
Si       0.625005012   0.875030976   0.875030976
Si       0.126606011   0.126606011   0.126606011
Si       0.124969024   0.124969024   0.625005012
Si       0.124969024   0.625005012   0.124969024
Si       0.124936824   0.624887097   0.624887097
Si       0.625005012   0.124969024   0.124969024
Si       0.624887097   0.124936824   0.624887097
Si       0.624887097   0.624887097   0.124936824
Si       0.625004888   0.625004888   0.625004888
End final coordinates

name                                                                 count      total        min        max    average    self (%)
qe|electrons                                                      :      6   200.8154    29.9115    35.2013    33.4692       0.00
qe|electrons|init                                                 :      6    12.4221     1.9588     2.2662     2.0704      12.28
qe|electrons|scf                                                  :      6   188.3141    27.6317    33.1789    31.3857       3.49
qe|init_run|hinit0                                                :      6     0.3742     0.0589     0.0786     0.0624       0.21
qe|init_run|hinit0|init_igk                                       :      6     0.0417     0.0067     0.0082     0.0069     100.00
qe|init_run|hinit0|init_us_1                                      :      6     0.0162     0.0004     0.0143     0.0027     100.00
qe|init_run|hinit0|struc_fact                                     :      6     0.3154     0.0518     0.0554     0.0526     100.00
qe|mix                                                            :     83    10.1959     0.0128     0.1570     0.1228     100.00
qe|run_pwscf                                                      :      1   239.4384   239.4384   239.4384   239.4384       0.73
qe|run_pwscf|electrons                                            :      6   200.8161    29.9122    35.2013    33.4694       0.00
qe|run_pwscf|forces                                               :      6     5.7828     0.9494     0.9982     0.9638       7.54
qe|run_pwscf|hinit1                                               :      5     0.4468     0.0869     0.0962     0.0894     100.00
qe|run_pwscf|init_run                                             :      6     3.5840     0.5690     0.6966     0.5973      89.56
qe|run_pwscf|ions                                                 :      6     1.7959     0.0819     0.8315     0.2993     100.00
qe|run_pwscf|setup                                                :      6     0.0353     0.0039     0.0156     0.0059     100.00
qe|run_pwscf|setup_sirius                                         :      6     6.9931     0.9402     2.2584     1.1655       0.92
qe|run_pwscf|stress                                               :      6    18.2486     2.9918     3.0651     3.0414       0.17
qe|stres_cc|deriv_drhoc                                           :     12     0.0701     0.0055     0.0065     0.0058      35.24
qe|stres_cc|drhoc                                                 :     12     0.0739     0.0049     0.0075     0.0062      44.20
qe|stress_xc                                                      :      6     0.9034     0.1467     0.1631     0.1506       0.02
qe|stress_xc|cc                                                   :      6     0.9031     0.1467     0.1631     0.1505      84.04
qe|v_ha                                                           :     89     3.2514     0.0360     0.0483     0.0365     100.00
qe|v_xc                                                           :     89     0.7735     0.0083     0.0168     0.0087     100.00
qe|veff                                                           :     83    14.6658     0.1725     0.1923     0.1767      37.46
sddk::FFT3D::FFT3D                                                :     12     0.6718     0.0038     0.6033     0.0560     100.00
sddk::FFT3D::prepare                                              :    522     0.8911     0.0014     0.0068     0.0017       0.42
sddk::FFT3D::prepare|gpu                                          :    522     0.8817     0.0014     0.0068     0.0017     100.00
sddk::FFT3D::transform                                            : 174506    55.9932     0.0003     0.0070     0.0003       0.77
sddk::FFT3D::transform_xy                                         : 174506    39.0363     0.0002     0.0007     0.0002     100.00
sddk::FFT3D::transform_z                                          : 174506    16.5265     0.0000     0.0026     0.0001       1.65
sddk::FFT3D::transform_z_serial                                   : 174506    12.2794     0.0000     0.0016     0.0001     100.00
sddk::FFT3D::transform_z|comm|d-1|DtoH                            :    119     0.0516     0.0003     0.0007     0.0004     100.00
sddk::FFT3D::transform_z|comm|d1|HtoD                             :  22469     3.9221     0.0002     0.0008     0.0002     100.00
sddk::Gvec::find_gvec_shells                                      :     24     0.3544     0.0031     0.0423     0.0148     100.00
sddk::Gvec::init                                                  :     24     0.7237     0.0061     0.0847     0.0302      51.03
sddk::matrix_storage::matrix_storage                              :   1056     2.2654     0.0000     0.0451     0.0021     100.00
sddk::remap_gvec_to_shells|init                                   :      6     0.1704     0.0274     0.0316     0.0284     100.00
sddk::wave_functions::inner                                       :   2207     5.4403     0.0001     0.0089     0.0025     100.00
sddk::wave_functions::orthogonalize                               :    617     7.3767     0.0028     0.0378     0.0120      21.80
sddk::wave_functions::transform                                   :   1486     8.1403     0.0012     0.0201     0.0055      99.75
sddk::wave_functions::transform|init                              :   1486     0.0205     0.0000     0.0000     0.0000     100.00
sirius::Atom_type::init                                           :     12     0.0122     0.0006     0.0039     0.0010     100.00
sirius::Augmentation_operator::generate_pw_coeffs                 :     12     3.5181     0.2853     0.2964     0.2932     100.00
sirius::Augmentation_operator_gvec_deriv::generate_pw_coeffs      :     36     5.6284     0.1358     0.1713     0.1563      39.51
sirius::Augmentation_operator_gvec_deriv::generate_pw_coeffs|qpw  :     36     3.4045     0.0917     0.1062     0.0946     100.00
sirius::Augmentation_operator_gvec_deriv|constructor              :      6     1.0098     0.1677     0.1697     0.1683     100.00
sirius::Band::apply_h_o                                           :    795    76.7174     0.0108     0.4686     0.0965       0.03
sirius::Band::diag_pseudo_potential                               :    166   115.6736     0.2813     2.6429     0.6968       0.14
sirius::Band::diag_pseudo_potential_davidson                      :    166   114.9997     0.2775     2.6390     0.6928       1.32
sirius::Band::diag_pseudo_potential_davidson|alloc                :    166     3.1668     0.0184     0.0260     0.0191      86.09
sirius::Band::diag_pseudo_potential_davidson|evp                  :    783    18.5262     0.0087     0.0586     0.0237     100.00
sirius::Band::diag_pseudo_potential_davidson|iter                 :    166   107.0890     0.2311     2.5753     0.6451       0.02
sirius::Band::diag_pseudo_potential_davidson|update_phi           :    186     1.4466     0.0031     0.0271     0.0078       0.49
sirius::Band::diag_pseudo_potential_davidson|wf                   :    166     0.0116     0.0000     0.0094     0.0001      96.74
sirius::Band::get_h_diag                                          :    166     1.7161     0.0099     0.0166     0.0103     100.00
sirius::Band::get_o_diag                                          :    166     1.4525     0.0085     0.0118     0.0087     100.00
sirius::Band::initialize_subspace                                 :      6     8.4462     1.3490     1.5393     1.4077       2.89
sirius::Band::initialize_subspace|kp                              :     12     8.1007     0.5588     0.8372     0.6751      11.46
sirius::Band::initialize_subspace|kp|wf                           :     12     0.5703     0.0455     0.0542     0.0475     100.00
sirius::Band::residuals                                           :    773     4.0708     0.0000     0.0204     0.0053       2.88
sirius::Band::residuals_aux                                       :    651     0.8876     0.0005     0.0021     0.0014     100.00
sirius::Band::set_subspace_mtrx                                   :    973     3.3847     0.0007     0.0095     0.0035       3.79
sirius::Band::solve_for_kset                                      :     83   131.7996     0.5954     5.9491     1.5879      11.00
sirius::Beta_projectors::Beta_projectors                          :     12     0.0637     0.0051     0.0063     0.0053       0.10
sirius::Beta_projectors::generate_pw_coefs_t                      :     12     0.0636     0.0051     0.0063     0.0053     100.00
sirius::Beta_projectors_base::dismiss                             :    392     0.0936     0.0000     0.0039     0.0002     100.00
sirius::Beta_projectors_base::generate                            :   1129     9.0704     0.0029     0.2100     0.0080     100.00
sirius::Beta_projectors_base::inner                               :   1129    12.7419     0.0017     0.0377     0.0113     100.00
sirius::Beta_projectors_base::prepare                             :    392     1.3224     0.0024     0.0227     0.0034     100.00
sirius::Beta_projectors_strain_deriv::generate_pw_coefs_t         :     12     1.0929     0.0904     0.0930     0.0911     100.00
sirius::DFT_ground_state::ewald_energy                            :      6     0.0291     0.0047     0.0052     0.0048     100.00
sirius::Density::add_k_point_contribution_dm                      :    166     3.6075     0.0209     0.0282     0.0217       9.61
sirius::Density::add_k_point_contribution_rg                      :    166    11.8359     0.0690     0.0780     0.0713       4.15
sirius::Density::augment                                          :     83     3.3185     0.0397     0.0441     0.0400       0.37
sirius::Density::generate_pseudo_core_charge_density              :      6     0.1825     0.0286     0.0362     0.0304       0.71
sirius::Density::generate_rho_aug                                 :     83     3.3062     0.0396     0.0439     0.0398     100.00
sirius::Density::generate_valence                                 :     83    21.8284     0.2550     0.2741     0.2630      11.76
sirius::Density::initial_density                                  :      6     0.3287     0.0526     0.0606     0.0548      41.04
sirius::Forces_PS::calc_ewald_forces                              :      6     0.2450     0.0396     0.0445     0.0408     100.00
sirius::Forces_PS::calc_local_forces                              :      6     0.3433     0.0540     0.0604     0.0572      53.30
sirius::Forces_PS::calc_nlcc_force                                :      6     0.1756     0.0290     0.0294     0.0293      63.84
sirius::Forces_PS::calc_nonlocal_forces                           :      6     3.8362     0.6321     0.6587     0.6394      18.90
sirius::Forces_PS::calc_scf_corr_forces                           :      6     0.1281     0.0205     0.0234     0.0213      87.30
sirius::Forces_PS::calc_ultrasoft_forces                          :      6     0.5144     0.0843     0.0892     0.0857      91.31
sirius::K_point::generate_gkvec                                   :     12     0.0754     0.0061     0.0068     0.0063       0.31
sirius::K_point::initialize                                       :     12     0.4432     0.0245     0.0499     0.0369      13.77
sirius::K_point_set::sync_band_energies                           :     83     0.0140     0.0000     0.0015     0.0002     100.00
sirius::Local_operator::apply_h                                   :    795    48.8092     0.0006     0.1761     0.0614       9.59
sirius::Local_operator::prepare                                   :    267     1.9269     0.0011     0.1803     0.0072      50.55
sirius::Non_local_operator::apply                                 :   1590    16.0238     0.0027     0.0284     0.0101     100.00
sirius::Periodic_function::inner                                  :    279     0.1931     0.0003     0.0010     0.0007      60.93
sirius::Potential::Potential                                      :      6     0.4126     0.0600     0.0793     0.0688      13.79
sirius::Potential::generate_D_operator_matrix                     :     89     3.5436     0.0384     0.0464     0.0398     100.00
sirius::Potential::generate_local_potential                       :      6     0.3555     0.0540     0.0702     0.0593       0.49
sirius::Radial_integrals|aug                                      :     12     0.8914     0.0676     0.0822     0.0743     100.00
sirius::Radial_integrals|beta                                     :     12     0.3010     0.0233     0.0294     0.0251     100.00
sirius::Radial_integrals|rho_core_pseudo                          :     42     0.1457     0.0029     0.0044     0.0035     100.00
sirius::Radial_integrals|rho_pseudo                               :     12     0.0325     0.0026     0.0033     0.0027     100.00
sirius::Radial_integrals|vloc                                     :     36     0.9581     0.0238     0.0403     0.0266     100.00
sirius::Simulation_context::initialize                            :      6     6.4690     0.8684     2.1125     1.0782       0.03
sirius::Simulation_context_base::init_atoms_to_grid_idx           :      6     0.0273     0.0043     0.0056     0.0046     100.00
sirius::Simulation_context_base::initialize                       :      6     2.9487     0.2805     1.5349     0.4914      22.68
sirius::Simulation_context_base::make_periodic_function           :     36     0.5410     0.0118     0.0200     0.0150     100.00
sirius::Simulation_parameters::import                             :      6     0.0156     0.0013     0.0086     0.0026     100.00
sirius::Smooth_periodic_function::fft_transform                   :    416     3.3764     0.0029     0.0227     0.0081      78.48
sirius::Smooth_periodic_function::gather_f_pw                     :    267     1.1639     0.0008     0.1693     0.0044     100.00
sirius::Stress|ewald                                              :      6     0.3225     0.0532     0.0543     0.0537     100.00
sirius::Stress|har                                                :      6     0.0259     0.0041     0.0044     0.0043     100.00
sirius::Stress|kin                                                :      6     0.8164     0.1353     0.1373     0.1361     100.00
sirius::Stress|nonloc                                             :      6     6.7094     1.1099     1.1422     1.1182      16.97
sirius::Stress|us                                                 :      6     8.7550     1.4223     1.4948     1.4592       5.80
sirius::Stress|us|gemm                                            :    108     0.7432     0.0033     0.0104     0.0069     100.00
sirius::Stress|us|phase_fac                                       :     12     0.0508     0.0002     0.0083     0.0042     100.00
sirius::Stress|us|prepare                                         :    108     0.2520     0.0003     0.0056     0.0023     100.00
sirius::Stress|vloc                                               :      6     0.5377     0.0889     0.0903     0.0896       4.04
sirius::Unit_cell::find_nearest_neighbours                        :      6     0.0170     0.0027     0.0035     0.0028     100.00
sirius::Unit_cell::initialize                                     :      6     0.0307     0.0041     0.0102     0.0051       4.92
sirius_api::sirius_get_pw_coeffs                                  :     95     2.7583     0.0277     0.0363     0.0290      88.71
sirius_api::sirius_set_pw_coeffs                                  :    202     2.6073     0.0034     0.0264     0.0129      27.17

     General routines

     Parallel routines

   This run was terminated on:  15:49:22  14Nov2017

   JOB DONE.