     Program PWSCF v.6.5 starts on  7May2020 at 18:42: 3

     K-points division:     npool     =       4
     Fft bands division:     nmany     =       1
     Reading input from pw.in
     Message from routine read_cards :
     DEPRECATED: no units specified in CELL_PARAMETERS card

     Current dimensions of program PWSCF are:
     Max number of different atomic species (ntypx) = 10
     Max number of k-points (npk) =  40000
     Max angular momentum in pseudopotentials (lmaxx) =  3
     Message from routine cell_base_init:
     DEPRECATED: use true lattice parameter, not A to a.u. conversion factor

     Subspace diagonalization in iterative solution of the eigenvalue problem:
     a serial algorithm will be used

     Message from routine setup:
     using ibrav=0 with symmetry is DISCOURAGED, use correct ibrav instead

     bravais-lattice index     =            0
     lattice parameter (alat)  =       1.0000  a.u.
     unit-cell volume          =    8646.7719 (a.u.)^3
     number of atoms/cell      =           64
     number of atomic types    =            2
     number of electrons       =       266.00
     number of Kohn-Sham states=          800
     kinetic-energy cutoff     =      50.0000  Ry
     charge density cutoff     =     800.0000  Ry
     convergence threshold     =      1.0E-11
     mixing beta               =       0.7000
     number of iterations used =            8  plain     mixing
     Exchange-correlation= SLA  PZ   NOGX NOGC
                           (   1   1   0   0   0   0   0)

     celldm(1)=   1.000000  celldm(2)=   0.000000  celldm(3)=   0.000000
     celldm(4)=   0.000000  celldm(5)=   0.000000  celldm(6)=   0.000000

     crystal axes: (cart. coord. in units of alat)
               a(1) = (  20.525071   0.000000   0.000000 )
               a(2) = (   0.000000  20.525071   0.000000 )
               a(3) = (   0.000000   0.000000  20.525071 )

     reciprocal axes: (cart. coord. in units 2 pi/alat)
               b(1) = (  0.048721  0.000000  0.000000 )
               b(2) = (  0.000000  0.048721  0.000000 )
               b(3) = (  0.000000  0.000000  0.048721 )

     PseudoPot. # 1 for Ge read from file:
     ./ge_lda_v1.4.uspp.F.UPF
     MD5 check sum: bf9d52b59cc8a669818bb2b52e0c2ba0
     Pseudo is Ultrasoft + core correction, Zval = 14.0
     Generated by new atomic code, or converted to UPF format
     Using radial grid of  873 points,  6 beta functions with:
                l(1) =   0
                l(2) =   0
                l(3) =   1
                l(4) =   1
                l(5) =   2
                l(6) =   2
     Q(r) pseudized with  8 coefficients,  rinner =    1.400   1.400   1.400
                                                       1.400   1.400

     PseudoPot. # 2 for Si read from file:
     ./si_lda_v1.uspp.F.UPF
     MD5 check sum: b5ade7b37ee992b02096e360e546dc2d
     Pseudo is Ultrasoft + core correction, Zval =  4.0
     Generated by new atomic code, or converted to UPF format
     Using radial grid of  899 points,  6 beta functions with:
                l(1) =   0
                l(2) =   0
                l(3) =   1
                l(4) =   1
                l(5) =   2
                l(6) =   2
     Q(r) pseudized with  8 coefficients,  rinner =    0.900   0.900   0.900
                                                       0.900   0.900

     atomic species   valence    mass     pseudopotential
        Ge            14.00    72.61000     Ge( 1.00)
        Si             4.00    28.08550     Si( 1.00)

     24 Sym. Ops. (no inversion) found

                                    s                        frac. trans.

      isym =  1     identity

 cryst.   s( 1) = (     1          0          0      )
                  (     0          1          0      )
                  (     0          0          1      )

 cart.    s( 1) = (  1.0000000  0.0000000  0.0000000 )
                  (  0.0000000  1.0000000  0.0000000 )
                  (  0.0000000  0.0000000  1.0000000 )

      isym =  2     180 deg rotation - cart. axis [0,0,1]

[...]

 cryst.   s( 9) = (     0          1          0      )
                  (     0          0          1      )
                  (     1          0          0      )

 cart.    s( 9) = (  0.0000000  0.0000000  1.0000000 )
                  (  1.0000000  0.0000000  0.0000000 )
                  (  0.0000000  1.0000000  0.0000000 )

[...]

 cryst.   s(10) = (     0         -1          0      )
                  (     0          0         -1      )
                  (     1          0          0      )

 cart.    s(10) = (  0.0000000  0.0000000  1.0000000 )
                  ( -1.0000000  0.0000000  0.0000000 )
                  (  0.0000000 -1.0000000  0.0000000 )

[...]

      isym = 12     120 deg rotation - cart. axis [-1,-1,1]

[...]

      isym = 13     inv. 180 deg rotation - cart. axis [1,1,0]

[...]

      isym = 24     inv.  90 deg rotation - cart. axis [1,0,0]

 cryst.   s(24) = (    -1          0          0      )
                  (     0          0         -1      )
                  (     0          1          0      )

 cart.    s(24) = ( -1.0000000  0.0000000  0.0000000 )
                  (  0.0000000  0.0000000  1.0000000 )
                  (  0.0000000 -1.0000000  0.0000000 )

   Cartesian axes

     site n.     atom                  positions (alat units)
         1           Ge  tau(   1) = (   0.0000000   0.0000000   0.0000000  )
         2           Si  tau(   2) = (   0.0000000   0.0000000  10.2625355  )
         3           Si  tau(   3) = (   0.0000000  10.2625355   0.0000000  )
         4           Si  tau(   4) = (   0.0000000  10.2625355  10.2625355  )
         5           Si  tau(   5) = (  10.2625355   0.0000000   0.0000000  )
         6           Si  tau(   6) = (  10.2625355   0.0000000  10.2625355  )
         7           Si  tau(   7) = (  10.2625355  10.2625355   0.0000000  )
         8           Si  tau(   8) = (  10.2625355  10.2625355  10.2625355  )
         9           Si  tau(   9) = (   0.0000000   5.1312678   5.1312678  )
        10           Si  tau(  10) = (   0.0000000   5.1312678  15.3938033  )
        11           Si  tau(  11) = (   0.0000000  15.3938033   5.1312678  )
        12           Si  tau(  12) = (   0.0000000  15.3938033  15.3938033  )
        13           Si  tau(  13) = (  10.2625355   5.1312678   5.1312678  )
        14           Si  tau(  14) = (  10.2625355   5.1312678  15.3938033  )
        15           Si  tau(  15) = (  10.2625355  15.3938033   5.1312678  )
        16           Si  tau(  16) = (  10.2625355  15.3938033  15.3938033  )
        17           Si  tau(  17) = (   5.1312678   0.0000000   5.1312678  )
        18           Si  tau(  18) = (   5.1312678   0.0000000  15.3938033  )
        19           Si  tau(  19) = (   5.1312678  10.2625355   5.1312678  )
        20           Si  tau(  20) = (   5.1312678  10.2625355  15.3938033  )
        21           Si  tau(  21) = (  15.3938033   0.0000000   5.1312678  )
        22           Si  tau(  22) = (  15.3938033   0.0000000  15.3938033  )
        23           Si  tau(  23) = (  15.3938033  10.2625355   5.1312678  )
        24           Si  tau(  24) = (  15.3938033  10.2625355  15.3938033  )
        25           Si  tau(  25) = (   5.1312678   5.1312678   0.0000000  )
        26           Si  tau(  26) = (   5.1312678   5.1312678  10.2625355  )
        27           Si  tau(  27) = (   5.1312678  15.3938033   0.0000000  )
        28           Si  tau(  28) = (   5.1312678  15.3938033  10.2625355  )
        29           Si  tau(  29) = (  15.3938033   5.1312678   0.0000000  )
        30           Si  tau(  30) = (  15.3938033   5.1312678  10.2625355  )
        31           Si  tau(  31) = (  15.3938033  15.3938033   0.0000000  )
        32           Si  tau(  32) = (  15.3938033  15.3938033  10.2625355  )
        33           Si  tau(  33) = (   7.6969016   7.6969016   2.5656339  )
        34           Si  tau(  34) = (   7.6969016   7.6969016  12.8281694  )
        35           Si  tau(  35) = (   7.6969016  17.9594371   2.5656339  )
        36           Si  tau(  36) = (   7.6969016  17.9594371  12.8281694  )
        37           Si  tau(  37) = (  17.9594371   7.6969016   2.5656339  )
        38           Si  tau(  38) = (  17.9594371   7.6969016  12.8281694  )
        39           Si  tau(  39) = (  17.9594371  17.9594371   2.5656339  )
        40           Si  tau(  40) = (  17.9594371  17.9594371  12.8281694  )
        41           Si  tau(  41) = (   7.6969016   2.5656339   7.6969016  )
        42           Si  tau(  42) = (   7.6969016   2.5656339  17.9594371  )
        43           Si  tau(  43) = (   7.6969016  12.8281694   7.6969016  )
        44           Si  tau(  44) = (   7.6969016  12.8281694  17.9594371  )
        45           Si  tau(  45) = (  17.9594371   2.5656339   7.6969016  )
        46           Si  tau(  46) = (  17.9594371   2.5656339  17.9594371  )
        47           Si  tau(  47) = (  17.9594371  12.8281694   7.6969016  )
        48           Si  tau(  48) = (  17.9594371  12.8281694  17.9594371  )
        49           Si  tau(  49) = (   2.5656339   7.6969016   7.6969016  )
        50           Si  tau(  50) = (   2.5656339   7.6969016  17.9594371  )
        51           Si  tau(  51) = (   2.5656339  17.9594371   7.6969016  )
        52           Si  tau(  52) = (   2.5656339  17.9594371  17.9594371  )
        53           Si  tau(  53) = (  12.8281694   7.6969016   7.6969016  )
        54           Si  tau(  54) = (  12.8281694   7.6969016  17.9594371  )
        55           Si  tau(  55) = (  12.8281694  17.9594371   7.6969016  )
        56           Si  tau(  56) = (  12.8281694  17.9594371  17.9594371  )
        57           Si  tau(  57) = (   2.5656339   2.5656339   2.5656339  )
        58           Si  tau(  58) = (   2.5656339   2.5656339  12.8281694  )
        59           Si  tau(  59) = (   2.5656339  12.8281694   2.5656339  )
        60           Si  tau(  60) = (   2.5656339  12.8281694  12.8281694  )
        61           Si  tau(  61) = (  12.8281694   2.5656339   2.5656339  )
        62           Si  tau(  62) = (  12.8281694   2.5656339  12.8281694  )
        63           Si  tau(  63) = (  12.8281694  12.8281694   2.5656339  )
        64           Si  tau(  64) = (  12.8281694  12.8281694  12.8281694  )

   Crystallographic axes

     site n.     atom                  positions (cryst. coord.)
         1           Ge  tau(   1) = (  0.0000000  0.0000000  0.0000000  )
         2           Si  tau(   2) = (  0.0000000  0.0000000  0.5000000  )
         3           Si  tau(   3) = (  0.0000000  0.5000000  0.0000000  )
         4           Si  tau(   4) = (  0.0000000  0.5000000  0.5000000  )
         5           Si  tau(   5) = (  0.5000000  0.0000000  0.0000000  )
         6           Si  tau(   6) = (  0.5000000  0.0000000  0.5000000  )
         7           Si  tau(   7) = (  0.5000000  0.5000000  0.0000000  )
         8           Si  tau(   8) = (  0.5000000  0.5000000  0.5000000  )
         9           Si  tau(   9) = (  0.0000000  0.2500000  0.2500000  )
[...]
 | | |- sirius::D_operator::initialize                                     14       1.29 ms       0.00       2.20      92.11 us      90.19 us      93.52 us
 | | |- sirius::Q_operator::initialize                                     14     974.60 us       0.00       1.66      69.28 us      68.01 us      71.50 us
 | |
 | |- sirius::Band::solve                                                  14      104.11 s      65.96      81.31        4.06 s        1.74 s       24.16 s
 | | |- sirius::Hamiltonian_k                                              14       2.52 ms       0.00       0.00     177.78 us     169.39 us     208.20 us
 | | | |- sirius::Local_operator::prepare_k                                14       2.43 ms       0.00      96.38     171.45 us     162.71 us     199.67 us
 | | | |- sirius::Beta_projectors_base::prepare                            14      65.86 us       0.00       2.61       4.59 us       4.06 us       6.43 us
 | | |- sirius::Band::diag_pseudo_potential_davidson                       14       89.19 s      56.51      85.68        3.98 s        1.68 s       24.16 s
 | | | |- sirius::Band::diag_pseudo_potential_davidson|alloc               14        3.85 s       2.44       4.32      67.35 ms      66.23 ms        2.97 s
 | | | | |- sddk::matrix_storage::matrix_storage                           84        2.58 s       1.63      67.01     642.00 ns     375.00 ns     942.86 ms
 | | | |- sirius::Hamiltonian_k::get_h_o_diag                              14        1.05 s       0.66       1.18      74.10 ms      73.96 ms      80.53 ms
 | | | |- sirius::Band::diag_pseudo_potential_davidson|iter                14       83.58 s      52.95      93.70        3.79 s        1.48 s       21.05 s
 | | | | |- sirius::Hamiltonian_k::apply_h_s                               68       17.48 s      11.07      20.91     104.27 ms      11.65 ms     641.59 ms
 | | | | | |- sirius::Local_operator::apply_h                              68        9.64 s       6.11      55.17      57.05 ms     495.55 us     363.67 ms
 | | | | | | |- sddk::matrix_storage::remap_forward                        68     169.54 us       0.00       0.00       2.43 us       2.13 us       3.65 us
 | | | | | | | |- sddk::matrix_storage::set_num_extra                      68     137.98 us       0.00      81.38       1.98 us       1.70 us       3.03 us
 | | | | | | |- sddk::matrix_storage::set_num_extra                        68      21.08 us       0.00       0.00     264.00 ns     200.00 ns     625.00 ns
 | | | | | | |- sddk::matrix_storage::remap_backward                       68      30.90 us       0.00       0.00     428.00 ns     264.00 ns       3.04 us
 | | | | | |- sirius::Beta_projectors_base::generate                       68     353.23 ms       0.22       2.02       4.60 ms       4.21 ms       6.75 ms
 | | | | | |- sirius::Beta_projectors_base::inner                          68        2.68 s       1.70      15.32      14.35 ms       1.67 ms      99.27 ms
 | | | | | |- sirius::Non_local_operator::apply                           136        4.80 s       3.04      27.48      14.15 ms       2.56 ms      87.13 ms
 | | | | |- sddk::orthogonalize                                            68        9.33 s       5.91      11.17      65.23 ms       7.07 ms     681.90 ms
 | | | | | |- sddk::inner                                                 122        2.88 s       1.82      30.86       4.08 ms      37.94 us     150.49 ms
 | | | | | | |- sddk::inner|local                                         122       2.07 ms       0.00       0.07      16.11 us       5.27 us      33.58 us
 | | | | | |- sddk::orthogonalize|tmtrx                                    68     144.60 ms       0.09       1.55     499.59 us      18.61 us      14.62 ms
 | | | | | |- sddk::orthogonalize|transform                                68        2.65 s       1.68      28.40       5.42 ms     149.84 us     109.54 ms
 | | | | | |- sddk::transform                                              54        3.66 s       2.32      39.19      17.39 ms       5.11 ms     416.71 ms
 | | | | | | |- sddk::transform|init                                       54     701.38 us       0.00       0.02      12.78 us      11.22 us      18.83 us
 | | | | | | |- sddk::transform|local                                     162      22.76 ms       0.01       0.62       6.83 us       3.63 us     406.59 us
 | | | | |- sirius::Band::set_subspace_mtrx                                68        3.14 s       1.99       3.75      22.36 ms       2.36 ms     196.02 ms
 | | | | | |- sddk::inner                                                  68        2.85 s       1.81      90.95      16.63 ms       1.46 ms     184.96 ms
 | | | | | | |- sddk::inner|local                                          68       2.55 ms       0.00       0.09      32.22 us       7.46 us      72.06 us
 | | | | |- sirius::Band::diag_pseudo_potential_davidson|evp               68       48.60 s      30.79      58.15     715.93 ms     503.05 ms        1.20 s
 | | | | | |- Eigensolver_magma|zheevdx                                    68       48.60 s      30.79     100.00     715.93 ms     503.05 ms        1.20 s
 | | | | |- sirius::residuals                                              68        2.92 s       1.85       3.50       8.89 ms       7.80 us     330.20 ms
 | | | | | |- sddk::transform                                              56        2.72 s       1.72      93.18      16.21 ms       3.01 ms     317.56 ms
 | | | | | | |- sddk::transform|init                                       56       1.15 ms       0.00       0.04      20.49 us      16.94 us      31.85 us
 | | | | | | |- sddk::transform|local                                     112      16.56 ms       0.01       0.61      20.65 us       5.74 us     440.85 us
 | | | | | |- sirius::normalized_preconditioned_residuals                  56     152.61 ms       0.10       5.22     826.59 us     236.81 us      11.05 ms
 | | | | |- sirius::Band::diag_pseudo_potential_davidson|update_phi        15        2.11 s       1.33       2.52     111.56 ms      60.59 ms     669.93 ms
 | | | | | |- sddk::transform                                              16        2.09 s       1.33      99.43     115.10 ms      60.59 ms     436.94 ms
 | | | | | | |- sddk::transform|init                                       16     380.78 us       0.00       0.02      23.88 us       7.45 us      37.91 us
 | | | | | | |- sddk::transform|local                                      17     275.02 us       0.00       0.01      16.94 us       6.14 us      21.20 us
 | | |- sirius::Beta_projectors_base::dismiss                              14       7.76 us       0.00       0.00     549.00 ns     463.00 ns     693.00 ns
 | | |- sirius::K_point_set::sync_band_energies                            14      10.12 ms       0.01       0.01      74.01 us      57.13 us       2.95 ms
 | |
 | |- qe|sum_band                                                          14       10.49 s       6.65       8.20     748.69 ms     740.87 ms     759.02 ms
 | | |- sirius::Density::generate                                          14        4.11 s       2.61      39.21     293.61 ms     292.35 ms     296.88 ms
 | | | |- sirius::Density::generate_valence                                14        4.11 s       2.61     100.00     293.61 ms     292.35 ms     296.88 ms
 | | | | |- sddk::matrix_storage::remap_forward                            14     112.37 us       0.00       0.00       7.85 us       7.11 us       9.87 us
 | | | | | |- sddk::matrix_storage::set_num_extra                          14     102.07 us       0.00      90.84       7.25 us       6.16 us       9.04 us
 | | | | |- sirius::Density::add_k_point_contribution_dm                   14     323.24 ms       0.20       7.86      23.07 ms      22.57 ms      24.67 ms
 | | | | | |- sirius::Beta_projectors_base::prepare                        14      92.03 us       0.00       0.03       6.38 us       5.95 us       7.44 us
 | | | | | |- sirius::Beta_projectors_base::generate                       14      59.46 ms       0.04      18.39       4.25 ms       4.23 ms       4.26 ms
 | | | | | |- sirius::Beta_projectors_base::inner                          14     252.30 ms       0.16      78.05      17.89 ms      17.87 ms      19.67 ms
 | | | | | |- sirius::Beta_projectors_base::dismiss                        14       6.67 us       0.00       0.00     467.50 ns     358.00 ns     678.00 ns
 | | | | |- sirius::Density::add_k_point_contribution_rg                   14     724.37 ms       0.46      17.61      51.89 ms      51.08 ms      52.10 ms
 | | | | |- sirius::Smooth_periodic_function::fft_transform                14      19.13 ms       0.01       0.46       1.37 ms       1.35 ms       1.39 ms
 | | | | |- sirius::Density::augment                                       14        2.81 s       1.78      68.22     200.47 ms     200.44 ms     200.52 ms
 | | | | | |- sirius::Density::generate_rho_aug                            14        2.80 s       1.78      99.87     200.21 ms     200.19 ms     200.26 ms
 | | |- sirius_api::sirius_get_pw_coeffs                                   14        2.36 s       1.49      22.47     167.94 ms     164.01 ms     175.22 ms
 | | | |- sirius::Smooth_periodic_function::gather_f_pw                    14     110.77 ms       0.07       4.70       7.05 ms       7.02 ms      13.92 ms
 | | |- qe|sym_rho                                                         14        3.00 s       1.90      28.57     212.89 ms     211.07 ms     223.30 ms
 | |
 | |- qe|mix                                                               14        3.58 s       2.27       2.80     271.27 ms      35.27 ms     337.77 ms
 | |- sirius_api::sirius_set_pw_coeffs                                     13     306.84 ms       0.19       0.24      23.23 ms      21.65 ms      28.72 ms
 | | |- sirius::Smooth_periodic_function::fft_transform                    13     129.95 ms       0.08      42.35       9.37 ms       8.60 ms      14.58 ms
 | |
 | |- qe|newd                                                              13        2.57 s       1.63       2.00     196.52 ms     196.11 ms     199.88 ms
 | | |- sirius::Potential::generate_D_operator_matrix                      13        2.56 s       1.62      99.88     196.29 ms     195.88 ms     199.66 ms
 |
 |- sirius_api::sirius_get_wave_functions                                   1     786.87 ms       0.50       0.50     786.87 ms     786.87 ms     786.87 ms
 | |- sddk::matrix_storage::matrix_storage                                  1      14.23 us       0.00       0.00      14.23 us      14.23 us      14.23 us
 |
 |- qe|ions                                                                 1       12.77 s       8.09       8.09       12.77 s       12.77 s       12.77 s
 | |- sirius_api::sirius_set_pw_coeffs                                      1      23.06 ms       0.01       0.18      23.06 ms      23.06 ms      23.06 ms
 | | |- sirius::Smooth_periodic_function::fft_transform                     1       8.76 ms       0.01      37.99       8.76 ms       8.76 ms       8.76 ms
 | |
 | |- qe|forces                                                             1        5.31 s       3.36      41.55        5.31 s        5.31 s        5.31 s
 | | |- qe|force|us                                                         1        1.27 s       0.81      24.01        1.27 s        1.27 s        1.27 s
 | | | |- sirius::Force::calc_forces_us                                     1        1.08 s       0.68      84.43        1.08 s        1.08 s        1.08 s
 | | | | |- sirius::Smooth_periodic_function::fft_transform                 1       8.35 ms       0.01       0.78       8.35 ms       8.35 ms       8.35 ms
 | | | |- sirius::Force::calc_forces_nonloc                                 1     198.34 ms       0.13      15.57     198.34 ms     198.34 ms     198.34 ms
 | | | | |- sirius::Non_local_functor::add_k_point                          1     111.89 ms       0.07      56.41     111.89 ms     111.89 ms     111.89 ms
 | | | | | |- sirius::Beta_projectors_base::prepare                         2       9.08 ms       0.01       8.12       4.54 ms      10.18 us       9.07 ms
 | | | | | |- sirius::Beta_projectors_base::generate                        4      16.93 ms       0.01      15.13       4.23 ms       4.21 ms       4.27 ms
 | | | | | |- sirius::Beta_projectors_base::inner                           4      71.43 ms       0.05      63.84      17.85 ms      17.84 ms      17.89 ms
 | | | | | |- sirius::Beta_projectors_base::dismiss                         2       1.90 us       0.00       0.00     948.50 ns     699.00 ns       1.20 us
 | | |- qe|force|local                                                      1     927.64 ms       0.59      17.48     927.64 ms     927.64 ms     927.64 ms
 | | |- qe|force|cc                                                         1        1.36 s       0.86      25.71        1.36 s        1.36 s        1.36 s
 | | |- qe|force|ewald                                                      1     526.22 ms       0.33       9.92     526.22 ms     526.22 ms     526.22 ms
 | | |- qe|force|scf                                                        1        1.21 s       0.77      22.85        1.21 s        1.21 s        1.21 s
 | |
 | |- qe|stress                                                             1        7.44 s       4.71      58.27        7.44 s        7.44 s        7.44 s
 | | |- sirius::Stress|kin                                                  1        1.35 s       0.86      18.21        1.35 s        1.35 s        1.35 s
 | | |- sirius::Stress|nonloc                                               1     434.30 ms       0.28       5.84     434.30 ms     434.30 ms     434.30 ms
 | | | |- sirius::Beta_projectors_strain_deriv::generate_pw_coefs_t         1      55.71 ms       0.04      12.83      55.71 ms      55.71 ms      55.71 ms
 | | | |- sirius::Non_local_functor::add_k_point                            1     297.96 ms       0.19      68.61     297.96 ms     297.96 ms     297.96 ms
 | | | | |- sirius::Beta_projectors_base::prepare                           2      27.47 ms       0.02       9.22      13.74 ms       9.04 us      27.46 ms
 | | | | |- sirius::Beta_projectors_base::generate                         10      42.23 ms       0.03      14.17       4.22 ms       4.19 ms       4.26 ms
 | | | | |- sirius::Beta_projectors_base::inner                            10     183.90 ms       0.12      61.72      18.12 ms      17.91 ms      19.75 ms
 | | | | |- sirius::Beta_projectors_base::dismiss                           2       2.22 us       0.00       0.00       1.11 us     913.00 ns       1.31 us
 | | |- sirius::Stress|us                                                   1        4.15 s       2.63      55.79        4.15 s        4.15 s        4.15 s
 | | | |- sirius::Smooth_periodic_function::fft_transform                   1      10.41 ms       0.01       0.25      10.41 ms      10.41 ms      10.41 ms
 | | | |- sirius::Augmentation_operator_gvec_deriv                          1     143.25 ms       0.09       3.45     143.25 ms     143.25 ms     143.25 ms
 | | | |- sirius::Augmentation_operator_gvec_deriv::prepare                 2      25.00 ms       0.02       0.60      12.50 ms      11.00 ms      13.99 ms
 | | | |- sirius::Stress|us|phase_fac                                       2      59.10 ms       0.04       1.42      29.55 ms       1.20 ms      57.90 ms
 | | | |- sirius::Augmentation_operator_gvec_deriv::generate_pw_coeffs      6     335.33 us       0.00       0.01      55.13 us      44.88 us      71.68 us
 | | | |- sirius::Stress|us|prepare                                        18     317.22 ms       0.20       7.64      17.09 ms       3.19 ms      32.33 ms
 | | | |- sirius::Stress|us|gemm                                           18        3.58 s       2.27      86.36      46.30 ms       8.40 ms     548.19 ms
 |
 |- qe|punch                                                                1     725.00 ns       0.00       0.00     725.00 ns     725.00 ns     725.00 ns
 |- sirius::finalize                                                        1     179.55 ms       0.11       0.11     179.55 ms     179.55 ms     179.55 ms

Batch Job Summary Report for Job "test_scf" (22451404) on daint
2020-05-07T18:40:32 2020-05-07T18:40:32 2020-05-07T18:41:51 2020-05-07T18:44:41   00:02:50   00:10:00
Username    Account     Partition   NNodes   Energy
antonk      csstaff     normal           4  126.27K joules
gpusecs  maxgpusecs        maxmem            summem
    220         220   13188988928       54897147904
Scratch File System        Files       Quota
/scratch/snx3000            3562     1000000