     Program PWSCF v.6.8 starts on  6Nov2021 at 12:49:37

     Reading input from pw.in
     Message from routine read_cards :
     DEPRECATED: no units specified in CELL_PARAMETERS card

     Current dimensions of program PWSCF are:
     Max number of different atomic species (ntypx) = 10
     Max number of k-points (npk) =  40000
     Max angular momentum in pseudopotentials (lmaxx) =  4
     Message from routine cell_base_init:
     DEPRECATED: use true lattice parameter, not A to a.u. conversion factor
     Message from routine setup:
     using ibrav=0 with symmetry is DISCOURAGED, use correct ibrav instead

     Subspace diagonalization in iterative solution of the eigenvalue problem:
     a serial algorithm will be used

     Using Slab Decomposition

     bravais-lattice index     =            0
     lattice parameter (alat)  =       1.0000  a.u.
     unit-cell volume          =    8646.7719 (a.u.)^3
     number of atoms/cell      =           64
     number of atomic types    =            2
     number of electrons       =       266.00
     number of Kohn-Sham states=          800
     kinetic-energy cutoff     =      50.0000  Ry
     charge density cutoff     =     800.0000  Ry
     scf convergence threshold =      1.0E-11
     mixing beta               =       0.7000
     number of iterations used =            8  plain     mixing
     Exchange-correlation= SLA  PZ   NOGX NOGC
                           (   1   1   0   0   0   0   0)

     celldm(1)=   1.000000  celldm(2)=   0.000000  celldm(3)=   0.000000
     celldm(4)=   0.000000  celldm(5)=   0.000000  celldm(6)=   0.000000

     crystal axes: (cart. coord. in units of alat)
               a(1) = (  20.525071   0.000000   0.000000 )
               a(2) = (   0.000000  20.525071   0.000000 )
               a(3) = (   0.000000   0.000000  20.525071 )

     reciprocal axes: (cart. coord. in units 2 pi/alat)
               b(1) = (  0.048721  0.000000  0.000000 )
               b(2) = (  0.000000  0.048721  0.000000 )
               b(3) = (  0.000000  0.000000  0.048721 )

     PseudoPot. # 1 for Ge read from file:
     ./ge_lda_v1.4.uspp.F.UPF
     MD5 check sum: bf9d52b59cc8a669818bb2b52e0c2ba0
     Pseudo is Ultrasoft + core correction, Zval = 14.0
     Generated by new atomic code, or converted to UPF format
     Using radial grid of  873 points,  6 beta functions with:
                l(1) =   0
                l(2) =   0
                l(3) =   1
                l(4) =   1
                l(5) =   2
                l(6) =   2
     Q(r) pseudized with  8 coefficients,  rinner =    1.400   1.400   1.400
                                                       1.400   1.400

     PseudoPot. # 2 for Si read from file:
     ./si_lda_v1.uspp.F.UPF
     MD5 check sum: b5ade7b37ee992b02096e360e546dc2d
     Pseudo is Ultrasoft + core correction, Zval =  4.0
     Generated by new atomic code, or converted to UPF format
     Using radial grid of  899 points,  6 beta functions with:
                l(1) =   0
                l(2) =   0
                l(3) =   1
                l(4) =   1
                l(5) =   2
                l(6) =   2
     Q(r) pseudized with  8 coefficients,  rinner =    0.900   0.900   0.900
                                                       0.900   0.900

     atomic species   valence    mass     pseudopotential
        Ge            14.00    72.61000     Ge( 1.00)
        Si             4.00    28.08550     Si( 1.00)

     24 Sym. Ops. (no inversion) found

                                    s                        frac. trans.

      isym =  1     identity

 cryst.   s( 1) = (     1          0          0      )
                  (     0          1          0      )
                  (     0          0          1      )

 cart.    s( 1) = (  1.0000000  0.0000000  0.0000000 )
                  (  0.0000000  1.0000000  0.0000000 )
                  (  0.0000000  0.0000000  1.0000000 )

      isym =  2     180 deg rotation - cart. axis [0,0,1]

[...]

 cryst.   s( 9) = (     0          1          0      )
                  (     0          0          1      )
                  (     1          0          0      )

 cart.    s( 9) = (  0.0000000  0.0000000  1.0000000 )
                  (  1.0000000  0.0000000  0.0000000 )
                  (  0.0000000  1.0000000  0.0000000 )

[...]

 cryst.   s(10) = (     0         -1          0      )
                  (     0          0         -1      )
                  (     1          0          0      )

 cart.    s(10) = (  0.0000000  0.0000000  1.0000000 )
                  ( -1.0000000  0.0000000  0.0000000 )
                  (  0.0000000 -1.0000000  0.0000000 )

[...]

      isym = 12     120 deg rotation - cart. axis [-1,-1,1]

[...]

      isym = 13     inv. 180 deg rotation - cart. axis [1,1,0]

[...]

      isym = 24     inv.  90 deg rotation - cart. axis [1,0,0]

 cryst.   s(24) = (    -1          0          0      )
                  (     0          0         -1      )
                  (     0          1          0      )

 cart.    s(24) = ( -1.0000000  0.0000000  0.0000000 )
                  (  0.0000000  0.0000000  1.0000000 )
                  (  0.0000000 -1.0000000  0.0000000 )

   Cartesian axes

     site n.     atom                  positions (alat units)
         1           Ge  tau(   1) = (   0.0000000   0.0000000   0.0000000  )
         2           Si  tau(   2) = (   0.0000000   0.0000000  10.2625355  )
         3           Si  tau(   3) = (   0.0000000  10.2625355   0.0000000  )
         4           Si  tau(   4) = (   0.0000000  10.2625355  10.2625355  )
         5           Si  tau(   5) = (  10.2625355   0.0000000   0.0000000  )
         6           Si  tau(   6) = (  10.2625355   0.0000000  10.2625355  )
         7           Si  tau(   7) = (  10.2625355  10.2625355   0.0000000  )
         8           Si  tau(   8) = (  10.2625355  10.2625355  10.2625355  )
         9           Si  tau(   9) = (   0.0000000   5.1312678   5.1312678  )
        10           Si  tau(  10) = (   0.0000000   5.1312678  15.3938033  )
        11           Si  tau(  11) = (   0.0000000  15.3938033   5.1312678  )
        12           Si  tau(  12) = (   0.0000000  15.3938033  15.3938033  )
        13           Si  tau(  13) = (  10.2625355   5.1312678   5.1312678  )
        14           Si  tau(  14) = (  10.2625355   5.1312678  15.3938033  )
        15           Si  tau(  15) = (  10.2625355  15.3938033   5.1312678  )
        16           Si  tau(  16) = (  10.2625355  15.3938033  15.3938033  )
        17           Si  tau(  17) = (   5.1312678   0.0000000   5.1312678  )
        18           Si  tau(  18) = (   5.1312678   0.0000000  15.3938033  )
        19           Si  tau(  19) = (   5.1312678  10.2625355   5.1312678  )
        20           Si  tau(  20) = (   5.1312678  10.2625355  15.3938033  )
        21           Si  tau(  21) = (  15.3938033   0.0000000   5.1312678  )
        22           Si  tau(  22) = (  15.3938033   0.0000000  15.3938033  )
        23           Si  tau(  23) = (  15.3938033  10.2625355   5.1312678  )
        24           Si  tau(  24) = (  15.3938033  10.2625355  15.3938033  )
        25           Si  tau(  25) = (   5.1312678   5.1312678   0.0000000  )
        26           Si  tau(  26) = (   5.1312678   5.1312678  10.2625355  )
        27           Si  tau(  27) = (   5.1312678  15.3938033   0.0000000  )
        28           Si  tau(  28) = (   5.1312678  15.3938033  10.2625355  )
        29           Si  tau(  29) = (  15.3938033   5.1312678   0.0000000  )
        30           Si  tau(  30) = (  15.3938033   5.1312678  10.2625355  )
        31           Si  tau(  31) = (  15.3938033  15.3938033   0.0000000  )
        32           Si  tau(  32) = (  15.3938033  15.3938033  10.2625355  )
        33           Si  tau(  33) = (   7.6969016   7.6969016   2.5656339  )
        34           Si  tau(  34) = (   7.6969016   7.6969016  12.8281694  )
        35           Si  tau(  35) = (   7.6969016  17.9594371   2.5656339  )
        36           Si  tau(  36) = (   7.6969016  17.9594371  12.8281694  )
        37           Si  tau(  37) = (  17.9594371   7.6969016   2.5656339  )
        38           Si  tau(  38) = (  17.9594371   7.6969016  12.8281694  )
        39           Si  tau(  39) = (  17.9594371  17.9594371   2.5656339  )
        40           Si  tau(  40) = (  17.9594371  17.9594371  12.8281694  )
        41           Si  tau(  41) = (   7.6969016   2.5656339   7.6969016  )
        42           Si  tau(  42) = (   7.6969016   2.5656339  17.9594371  )
        43           Si  tau(  43) = (   7.6969016  12.8281694   7.6969016  )
        44           Si  tau(  44) = (   7.6969016  12.8281694  17.9594371  )
        45           Si  tau(  45) = (  17.9594371   2.5656339   7.6969016  )
        46           Si  tau(  46) = (  17.9594371   2.5656339  17.9594371  )
        47           Si  tau(  47) = (  17.9594371  12.8281694   7.6969016  )
        48           Si  tau(  48) = (  17.9594371  12.8281694  17.9594371  )
        49           Si  tau(  49) = (   2.5656339   7.6969016   7.6969016  )
        50           Si  tau(  50) = (   2.5656339   7.6969016  17.9594371  )
        51           Si  tau(  51) = (   2.5656339  17.9594371   7.6969016  )
        52           Si  tau(  52) = (   2.5656339  17.9594371  17.9594371  )
        53           Si  tau(  53) = (  12.8281694   7.6969016   7.6969016  )
        54           Si  tau(  54) = (  12.8281694   7.6969016  17.9594371  )
        55           Si  tau(  55) = (  12.8281694  17.9594371   7.6969016  )
        56           Si  tau(  56) = (  12.8281694  17.9594371  17.9594371  )
        57           Si  tau(  57) = (   2.5656339   2.5656339   2.5656339  )
        58           Si  tau(  58) = (   2.5656339   2.5656339  12.8281694  )
        59           Si  tau(  59) = (   2.5656339  12.8281694   2.5656339  )
        60           Si  tau(  60) = (   2.5656339  12.8281694  12.8281694  )
        61           Si  tau(  61) = (  12.8281694   2.5656339   2.5656339  )
        62           Si  tau(  62) = (  12.8281694   2.5656339  12.8281694  )
        63           Si  tau(  63) = (  12.8281694  12.8281694   2.5656339  )
        64           Si  tau(  64) = (  12.8281694  12.8281694  12.8281694  )

   Crystallographic axes

     site n.     atom                  positions (cryst. coord.)
         1           Ge  tau(   1) = (  0.0000000  0.0000000  0.0000000  )
         2           Si  tau(   2) = (  0.0000000  0.0000000  0.5000000  )
         3           Si  tau(   3) = (  0.0000000  0.5000000  0.0000000  )
         4           Si  tau(   4) = (  0.0000000  0.5000000  0.5000000  )
         5           Si  tau(   5) = (  0.5000000  0.0000000  0.0000000  )
         6           Si  tau(   6) = (  0.5000000  0.0000000  0.5000000  )
         7           Si  tau(   7) = (  0.5000000  0.5000000  0.0000000  )
         8           Si  tau(   8) = (  0.5000000  0.5000000  0.5000000  )
         9           Si  tau(   9) = (  0.0000000  0.2500000  0.2500000  )
        10           Si  tau(  10) = (  0.0000000  0.2500000  0.7500000  )
[...]
├ sirius::Force::calc_forces_us                                       1       3.67 s        1.20     100.00       3.67 s        3.67 s        3.67 s
├ sirius::Density::add_k_point_contribution_rg                       60       3.04 s        1.00     100.00      50.48 ms      49.51 ms      52.26 ms
├ sirius::Potential::xc                                              16       2.93 s        0.96     100.00     183.20 ms     176.94 ms     185.62 ms
├ sirius::Potential::xc_rg_nonmagnetic                               16       2.73 s        0.90     100.00     171.02 ms     164.01 ms     173.93 ms
├ sirius::Beta_projectors_base::generate                            458       2.18 s        0.71     100.00       4.24 ms       3.98 ms       6.79 ms
├ sirius_api::sirius_get_wave_functions                               4       1.94 s        0.64     100.00     433.98 ms     432.59 ms     642.79 ms
├ hinit0                                                              1       1.73 s        0.57     100.00       1.73 s        1.73 s        1.73 s
├ sirius::Density::mix                                               15       1.71 s        0.56     100.00     135.31 ms      42.62 ms     137.82 ms
├ sirius::Stress|ewald                                                1       1.64 s        0.54     100.00       1.64 s        1.64 s        1.64 s
├ sirius::Stress|nonloc                                               1       1.60 s        0.53     100.00       1.60 s        1.60 s        1.60 s
├ sirius::Non_local_functor::add_k_point                              8       1.59 s        0.52     100.00     199.02 ms     110.87 ms     290.50 ms
├ sirius::initialize                                                  1       1.57 s        0.52     100.00       1.57 s        1.57 s        1.57 s
├ sirius::Density::add_k_point_contribution_dm                       60       1.36 s        0.45     100.00      22.66 ms      22.51 ms      23.40 ms
├ sirius::Density::get_magnetisation                                 16       1.04 s        0.34     100.00      65.27 ms      64.34 ms      65.67 ms
├ sirius::Density::compute_atomic_mag_mom                            16       1.04 s        0.34     100.00      65.26 ms      64.33 ms      65.66 ms
├ wfcinit                                                             1       1.03 s        0.34     100.00       1.03 s        1.03 s        1.03 s
├ sirius::Smooth_periodic_function::fft_transform                   119       1.03 s        0.34     100.00      11.26 ms       1.26 ms      11.70 ms
├ sirius::Potential::poisson                                         16       1.02 s        0.33     100.00      63.30 ms      63.19 ms      67.25 ms
├ sddk::Gvec_shells::remap_forward                                   31     927.10 ms       0.30     100.00      27.39 ms      26.82 ms      33.39 ms
├ sddk::orthogonalize|tmtrx                                         334     899.90 ms       0.30     100.00      99.42 us      12.24 us      83.45 ms
├ sirius::Periodic_function::integrate                               17     866.11 ms       0.28     100.00      50.91 ms      50.87 ms      51.49 ms
├ init_us_1                                                           1     830.37 ms       0.27     100.00     830.37 ms     830.37 ms     830.37 ms
├ sirius::Stress|us|prepare                                          18     825.77 ms       0.27     100.00      45.70 ms       2.57 ms      89.65 ms
├ sddk::Gvec_shells::remap_backward                                  31     783.71 ms       0.26     100.00      24.99 ms      24.71 ms      28.23 ms
├ sirius::Force::calc_forces_nonloc                                   1     753.58 ms       0.25     100.00     753.58 ms     753.58 ms     753.58 ms
├ qe|setup                                                            1     699.07 ms       0.23     100.00     699.07 ms     699.07 ms     699.07 ms
├ sirius::normalized_preconditioned_residuals                       289     652.24 ms       0.21     100.00     611.81 us     199.48 us      11.01 ms
├ potinit                                                             1     603.71 ms       0.20     100.00     603.71 ms     603.71 ms     603.71 ms
├ sddk::Gvec::init                                                   10     584.74 ms       0.19     100.00       2.98 ms       2.93 ms     508.46 ms
├ sddk::Gvec_shells                                                   1     551.71 ms       0.18     100.00     551.71 ms     551.71 ms     551.71 ms
├ Eigensolver_cuda|zhegvdx                                            8     546.75 ms       0.18     100.00      67.83 ms      67.40 ms      72.06 ms
├ sirius::Force::calc_forces_ewald                                    1     532.76 ms       0.17     100.00     532.76 ms     532.76 ms     532.76 ms
├ sddk::Gvec::find_gvec_shells                                        2     469.73 ms       0.15     100.00     234.87 ms      44.27 ms     425.46 ms
├ sirius::Augmentation_operator_gvec_deriv                            1     380.50 ms       0.12     100.00     380.50 ms     380.50 ms     380.50 ms
├ v_of_rho                                                            1     357.43 ms       0.12     100.00     357.43 ms     357.43 ms     357.43 ms
├ sirius::Density::symmetrize_density_matrix                         15     356.93 ms       0.12     100.00      23.56 ms      23.49 ms      26.51 ms
├ qe|setlocal                                                         1     350.67 ms       0.11     100.00     350.67 ms     350.67 ms     350.67 ms
├ fft                                                                 6     271.99 ms       0.09     100.00      16.14 ms      15.66 ms     191.68 ms
├ sirius::Density::initial_density                                    1     267.84 ms       0.09     100.00     267.84 ms     267.84 ms     267.84 ms
├ sirius::Hamiltonian_k::get_h_o_diag                                60     252.48 ms       0.08     100.00       4.17 ms       4.03 ms       5.61 ms
├ sirius::Density::mixer_output                                      15     234.03 ms       0.08     100.00      15.58 ms      15.54 ms      16.01 ms
├ sirius::Band::initialize_subspace|kp|wf                             8     221.31 ms       0.07     100.00      27.64 ms      27.57 ms      27.79 ms
├ sirius::Force::calc_forces_core                                     1     219.96 ms       0.07     100.00     219.96 ms     219.96 ms     219.96 ms
├ sirius::Force::calc_forces_scf_corr                                 1     218.78 ms       0.07     100.00     218.78 ms     218.78 ms     218.78 ms
├ sirius::Force::calc_forces_vloc                                     1     212.51 ms       0.07     100.00     212.51 ms     212.51 ms     212.51 ms
├ sirius::Potential                                                   1     211.98 ms       0.07     100.00     211.98 ms     211.98 ms     211.98 ms
├ v_xc                                                                1     209.73 ms       0.07     100.00     209.73 ms     209.73 ms     209.73 ms
├ sirius::Stress|us|phase_fac                                         2     199.47 ms       0.07     100.00      99.73 ms       3.14 ms     196.33 ms
├ sirius::Density                                                     2     166.45 ms       0.05     100.00      83.23 ms      83.18 ms      83.27 ms
├ sirius::Beta_projectors_strain_deriv::generate_pw_coefs_t           4     154.54 ms       0.05     100.00      38.65 ms      38.47 ms      38.76 ms
├ sirius::K_point::generate_atomic_wave_functions                     8     149.90 ms       0.05     100.00      18.70 ms      18.54 ms      19.14 ms
├ sirius::finalize                                                    1     149.88 ms       0.05     100.00     149.88 ms     149.88 ms     149.88 ms
├ v_h                                                                 1     147.66 ms       0.05     100.00     147.66 ms     147.66 ms     147.66 ms
├ init_vloc                                                           1     142.08 ms       0.05     100.00     142.08 ms     142.08 ms     142.08 ms
├ sirius::Beta_projectors_base::prepare                             144     139.52 ms       0.05     100.00       5.68 us       1.98 us      26.25 ms
├ sirius::Stress|vloc                                                 1     136.15 ms       0.04     100.00     136.15 ms     136.15 ms     136.15 ms
├ sirius::Density::update                                             2      99.53 ms       0.03     100.00      49.77 ms      49.42 ms      50.11 ms
├ qe|set_vrs                                                          1      95.07 ms       0.03     100.00      95.07 ms      95.07 ms      95.07 ms
├ sirius::Periodic_function::add                                     32      91.61 ms       0.03     100.00       2.87 ms       2.69 ms       3.03 ms
├ sirius::Density::generate_pseudo_core_charge_density                2      90.45 ms       0.03     100.00      45.22 ms      44.93 ms      45.51 ms
├ sirius::Hamiltonian0                                               17      90.29 ms       0.03     100.00       5.02 ms       4.96 ms       8.50 ms
├ sirius::K_point_set::initialize                                     1      88.17 ms       0.03     100.00      88.17 ms      88.17 ms      88.17 ms
├ sirius::K_point::initialize                                         8      88.07 ms       0.03     100.00      11.08 ms       9.33 ms      12.30 ms
├ sirius::Radial_integrals|atomic_wfs                                 4      82.35 ms       0.03     100.00      18.74 ms       1.41 us      44.87 ms
├ sirius::Stress|har                                                  1      77.14 ms       0.03     100.00      77.14 ms      77.14 ms      77.14 ms
├ interpolate                                                         1      69.04 ms       0.02     100.00      69.04 ms      69.04 ms      69.04 ms
├ sirius::K_point_set::find_band_occupancies                         15      66.04 ms       0.02     100.00       4.54 ms       3.46 ms       4.64 ms
├ sirius::Density::mixer_input                                       15      61.10 ms       0.02     100.00       4.08 ms       4.06 ms       4.09 ms
├ sirius::Simulation_context::make_periodic_function                  7      57.66 ms       0.02     100.00      10.75 ms       3.83 ms      11.89 ms
├ sirius::Potential::update                                           1      55.62 ms       0.02     100.00      55.62 ms      55.62 ms      55.62 ms
├ sirius::K_point::update                                             8      54.14 ms       0.02     100.00       6.90 ms       5.09 ms       7.85 ms
├ sirius::Local_operator                                             17      53.90 ms       0.02     100.00       2.91 ms       2.87 ms       6.16 ms
├ sirius::Augmentation_operator_gvec_deriv::prepare                   2      51.61 ms       0.02     100.00      25.80 ms      20.34 ms      31.26 ms
├ sirius::Potential::generate_local_potential                         1      51.05 ms       0.02     100.00      51.05 ms      51.05 ms      51.05 ms
├ sirius::Beta_projectors                                             8      43.93 ms       0.01     100.00       5.48 ms       4.03 ms       6.78 ms
├ sirius::K_point::generate_gkvec                                     8      30.71 ms       0.01     100.00       3.87 ms       3.54 ms       4.12 ms
├ sirius::Beta_projectors::generate_pw_coefs_t                        8      26.52 ms       0.01     100.00       3.31 ms       2.60 ms       3.87 ms
├ sirius::Q_operator::initialize                                     17      21.63 ms       0.01     100.00       1.27 ms       1.26 ms       1.29 ms
├ sirius::Stress|kin                                                  1      17.07 ms       0.01     100.00      17.07 ms      17.07 ms      17.07 ms
├ sirius::Unit_cell::update                                           2      13.69 ms       0.00     100.00       6.84 ms       6.63 ms       7.06 ms
├ sirius::Hamiltonian_k                                              68      12.49 ms       0.00     100.00     196.14 us     122.64 us     210.22 us
├ sirius::Local_operator::prepare_k                                  68      11.85 ms       0.00     100.00     187.33 us     111.04 us     201.63 us
├ sirius::D_operator::initialize                                     17      11.58 ms       0.00     100.00     657.94 us     650.51 us       1.03 ms
├ sirius::Unit_cell::get_symmetry                                     2      11.41 ms       0.00     100.00       5.71 ms       5.60 ms       5.82 ms
├ sirius::Crystal_symmetry                                            2      11.32 ms       0.00     100.00       5.66 ms       5.54 ms       5.77 ms
├ sirius::Unit_cell::initialize                                       1       7.45 ms       0.00     100.00       7.45 ms       7.45 ms       7.45 ms
├ sirius::Simulation_context::init_atoms_to_grid_idx                  1       6.28 ms       0.00     100.00       6.28 ms       6.28 ms       6.28 ms
├ sirius::find_sym_atom                                              96       5.71 ms       0.00     100.00      58.91 us      58.10 us      86.86 us
├ sirius::Crystal_symmetry|spg                                        2       5.03 ms       0.00     100.00       2.52 ms       2.44 ms       2.59 ms
├ sirius::Unit_cell::find_nearest_neighbours                          2       2.22 ms       0.00     100.00       1.11 ms       1.01 ms       1.20 ms
├ sirius::Non_local_operator                                         34       1.97 ms       0.00     100.00      54.04 us      28.25 us      89.56 us
├ sirius::K_point_set::sync_band                                     30       1.59 ms       0.00     100.00      49.49 us      19.18 us      95.74 us
├ sddk::matrix_storage::remap_forward                               402       1.04 ms       0.00     100.00       2.35 us       1.09 us      10.97 us
├ ffts                                                                1       1.02 ms       0.00     100.00       1.02 ms       1.02 ms       1.02 ms
├ sirius::Force::symmetrize                                           6     285.92 us       0.00     100.00      48.19 us      39.81 us      54.04 us
├ sirius::Atom_type::init                                             2     272.68 us       0.00     100.00     136.34 us      98.96 us     173.72 us
├ sirius::Augmentation_operator_gvec_deriv::generate_pw_coeffs        6     251.55 us       0.00     100.00      32.95 us      31.22 us      65.93 us
├ sddk::wf_inner|scale_back                                         958     207.25 us       0.00     100.00     192.00 ns      90.00 ns       6.49 us
├ sddk::matrix_storage::remap_backward                              342     162.83 us       0.00     100.00     411.00 ns     173.00 ns      11.36 us
├ sddk::wf_inner|scale                                              958     150.40 us       0.00     100.00      73.00 ns      46.00 ns       8.54 us
├ sirius::Beta_projectors_base::dismiss                             144      91.73 us       0.00     100.00     435.50 ns     288.00 ns       8.31 us
├ sirius::Simulation_context::init_comm                               1      87.68 us       0.00     100.00      87.68 us      87.68 us      87.68 us
├ sirius::Crystal_symmetry|mag                                        2      58.08 us       0.00     100.00      29.04 us      24.13 us      33.94 us
├ sirius::K_point::K_point                                            8      44.21 us       0.00     100.00       4.98 us       4.73 us       8.57 us
├ sirius::Potential::generate_PAW_effective_potential                16       2.98 us       0.00     100.00     187.00 ns     176.00 ns     205.00 ns
├ qe|paw_becsum                                                       1       1.04 us       0.00     100.00       1.04 us       1.04 us       1.04 us
├ qe|paw_potential                                                    1     797.00 ns       0.00     100.00     797.00 ns     797.00 ns     797.00 ns
└ qe|punch                                                            1     513.00 ns       0.00     100.00     513.00 ns     513.00 ns     513.00 ns

Note: The following floating-point exceptions are signalling: IEEE_UNDERFLOW_FLAG IEEE_DENORMAL

Batch Job Summary Report (version 21.01.1) for Job "test_scf" (34792605) on daint

Job information (1/3)
2021-11-06T12:49:26 2021-11-06T12:49:26 2021-11-06T12:49:27 2021-11-06T12:54:41   00:05:14   00:40:00

Job information (2/3)
    Username      Account    Partition   NNodes        Energy
      antonk      csstaff       normal        1     61.556 kJ

Job information (3/3) - GPU utilization data
   Node name       Usage      Max mem Execution time