     Program PWSCF v.6.6 starts on  6Nov2021 at 17: 1:26

     K-points division:     npool     =       4
     Fft bands division:     nmany     =       1
     Reading input from pw.in
     Message from routine read_cards :
     DEPRECATED: no units specified in CELL_PARAMETERS card

     Current dimensions of program PWSCF are:
     Max number of different atomic species (ntypx) = 10
     Max number of k-points (npk) =  40000
     Max angular momentum in pseudopotentials (lmaxx) =  3
     Message from routine cell_base_init:
     DEPRECATED: use true lattice parameter, not A to a.u. conversion factor

     Subspace diagonalization in iterative solution of the eigenvalue problem:
     a serial algorithm will be used

     Message from routine setup:
     using ibrav=0 with symmetry is DISCOURAGED, use correct ibrav instead

     Using Slab Decomposition

     bravais-lattice index     =            0
     lattice parameter (alat)  =       1.0000  a.u.
     unit-cell volume          =    8646.7719 (a.u.)^3
     number of atoms/cell      =           64
     number of atomic types    =            2
     number of electrons       =       266.00
     number of Kohn-Sham states=          800
     kinetic-energy cutoff     =      50.0000  Ry
     charge density cutoff     =     800.0000  Ry
     convergence threshold     =      1.0E-11
     mixing beta               =       0.7000
     number of iterations used =            8  plain     mixing
     Exchange-correlation= SLA  PZ   NOGX NOGC
                           (   1   1   0   0   0   0   0)

     GPU acceleration is ACTIVE.

     GPU used by master process:

        Device Number: 0
        Compute capability : 60
        Ratio of single to double precision performance  : 2

     celldm(1)=   1.000000  celldm(2)=   0.000000  celldm(3)=   0.000000
     celldm(4)=   0.000000  celldm(5)=   0.000000  celldm(6)=   0.000000

     crystal axes: (cart. coord. in units of alat)
               a(1) = (  20.525071   0.000000   0.000000 )
               a(2) = (   0.000000  20.525071   0.000000 )
               a(3) = (   0.000000   0.000000  20.525071 )

     reciprocal axes: (cart. coord. in units 2 pi/alat)
               b(1) = (  0.048721  0.000000  0.000000 )
               b(2) = (  0.000000  0.048721  0.000000 )
               b(3) = (  0.000000  0.000000  0.048721 )

     PseudoPot. # 1 for Ge read from file:
     ./ge_lda_v1.4.uspp.F.UPF
     MD5 check sum: bf9d52b59cc8a669818bb2b52e0c2ba0
     Pseudo is Ultrasoft + core correction, Zval = 14.0
     Generated by new atomic code, or converted to UPF format
     Using radial grid of  873 points,  6 beta functions with:
                l(1) =   0
                l(2) =   0
                l(3) =   1
                l(4) =   1
                l(5) =   2
                l(6) =   2
     Q(r) pseudized with  8 coefficients,  rinner =    1.400   1.400   1.400
                                                       1.400   1.400

     PseudoPot. # 2 for Si read from file:
     ./si_lda_v1.uspp.F.UPF
     MD5 check sum: b5ade7b37ee992b02096e360e546dc2d
     Pseudo is Ultrasoft + core correction, Zval =  4.0
     Generated by new atomic code, or converted to UPF format
     Using radial grid of  899 points,  6 beta functions with:
                l(1) =   0
                l(2) =   0
                l(3) =   1
                l(4) =   1
                l(5) =   2
                l(6) =   2
     Q(r) pseudized with  8 coefficients,  rinner =    0.900   0.900   0.900
                                                       0.900   0.900

     atomic species   valence    mass     pseudopotential
        Ge            14.00    72.61000     Ge( 1.00)
        Si             4.00    28.08550     Si( 1.00)

     24 Sym. Ops. (no inversion) found

                                    s                        frac. trans.

      isym =  1     identity

 cryst.   s( 1) = (     1          0          0      )
                  (     0          1          0      )
                  (     0          0          1      )

 cart.    s( 1) = (  1.0000000  0.0000000  0.0000000 )
                  (  0.0000000  1.0000000  0.0000000 )
                  (  0.0000000  0.0000000  1.0000000 )

      isym =  2     180 deg rotation - cart. axis [0,0,1]

[...]

 cryst.   s( 9) = (     0          1          0      )
                  (     0          0          1      )
                  (     1          0          0      )

 cart.    s( 9) = (  0.0000000  0.0000000  1.0000000 )
                  (  1.0000000  0.0000000  0.0000000 )
                  (  0.0000000  1.0000000  0.0000000 )

[...]

 cryst.   s(10) = (     0         -1          0      )
                  (     0          0         -1      )
                  (     1          0          0      )

 cart.    s(10) = (  0.0000000  0.0000000  1.0000000 )
                  ( -1.0000000  0.0000000  0.0000000 )
                  (  0.0000000 -1.0000000  0.0000000 )

[...]

      isym = 12     120 deg rotation - cart. axis [-1,-1,1]

[...]

      isym = 13     inv. 180 deg rotation - cart. axis [1,1,0]

[...]

      isym = 24     inv.  90 deg rotation - cart. axis [1,0,0]

 cryst.   s(24) = (    -1          0          0      )
                  (     0          0         -1      )
                  (     0          1          0      )

 cart.    s(24) = ( -1.0000000  0.0000000  0.0000000 )
                  (  0.0000000  0.0000000  1.0000000 )
                  (  0.0000000 -1.0000000  0.0000000 )

   Cartesian axes

     site n.     atom                  positions (alat units)
         1           Ge  tau(   1) = (   0.0000000   0.0000000   0.0000000  )
         2           Si  tau(   2) = (   0.0000000   0.0000000  10.2625355  )
         3           Si  tau(   3) = (   0.0000000  10.2625355   0.0000000  )
         4           Si  tau(   4) = (   0.0000000  10.2625355  10.2625355  )
         5           Si  tau(   5) = (  10.2625355   0.0000000   0.0000000  )
         6           Si  tau(   6) = (  10.2625355   0.0000000  10.2625355  )
         7           Si  tau(   7) = (  10.2625355  10.2625355   0.0000000  )
         8           Si  tau(   8) = (  10.2625355  10.2625355  10.2625355  )
         9           Si  tau(   9) = (   0.0000000   5.1312678   5.1312678  )
        10           Si  tau(  10) = (   0.0000000   5.1312678  15.3938033  )
        11           Si  tau(  11) = (   0.0000000  15.3938033   5.1312678  )
        12           Si  tau(  12) = (   0.0000000  15.3938033  15.3938033  )
        13           Si  tau(  13) = (  10.2625355   5.1312678   5.1312678  )
        14           Si  tau(  14) = (  10.2625355   5.1312678  15.3938033  )
        15           Si  tau(  15) = (  10.2625355  15.3938033   5.1312678  )
        16           Si  tau(  16) = (  10.2625355  15.3938033  15.3938033  )
        17           Si  tau(  17) = (   5.1312678   0.0000000   5.1312678  )
        18           Si  tau(  18) = (   5.1312678   0.0000000  15.3938033  )
        19           Si  tau(  19) = (   5.1312678  10.2625355   5.1312678  )
        20           Si  tau(  20) = (   5.1312678  10.2625355  15.3938033  )
        21           Si  tau(  21) = (  15.3938033   0.0000000   5.1312678  )
        22           Si  tau(  22) = (  15.3938033   0.0000000  15.3938033  )
        23           Si  tau(  23) = (  15.3938033  10.2625355   5.1312678  )
        24           Si  tau(  24) = (  15.3938033  10.2625355  15.3938033  )
        25           Si  tau(  25) = (   5.1312678   5.1312678   0.0000000  )
        26           Si  tau(  26) = (   5.1312678   5.1312678  10.2625355  )
        27           Si  tau(  27) = (   5.1312678  15.3938033   0.0000000  )
        28           Si  tau(  28) = (   5.1312678  15.3938033  10.2625355  )
        29           Si  tau(  29) = (  15.3938033   5.1312678   0.0000000  )
        30           Si  tau(  30) = (  15.3938033   5.1312678  10.2625355  )
        31           Si  tau(  31) = (  15.3938033  15.3938033   0.0000000  )
        32           Si  tau(  32) = (  15.3938033  15.3938033  10.2625355  )
        33           Si  tau(  33) = (   7.6969016   7.6969016   2.5656339  )
        34           Si  tau(  34) = (   7.6969016   7.6969016  12.8281694  )
        35           Si  tau(  35) = (   7.6969016  17.9594371   2.5656339  )
        36           Si  tau(  36) = (   7.6969016  17.9594371  12.8281694  )
        37           Si  tau(  37) = (  17.9594371   7.6969016   2.5656339  )
        38           Si  tau(  38) = (  17.9594371   7.6969016  12.8281694  )
        39           Si  tau(  39) = (  17.9594371  17.9594371   2.5656339  )
        40           Si  tau(  40) = (  17.9594371  17.9594371  12.8281694  )
        41           Si  tau(  41) = (   7.6969016   2.5656339   7.6969016  )
        42           Si  tau(  42) = (   7.6969016   2.5656339  17.9594371  )
        43           Si  tau(  43) = (   7.6969016  12.8281694   7.6969016  )
        44           Si  tau(  44) = (   7.6969016  12.8281694  17.9594371  )
        45           Si  tau(  45) = (  17.9594371   2.5656339   7.6969016  )
        46           Si  tau(  46) = (  17.9594371   2.5656339  17.9594371  )
        47           Si  tau(  47) = (  17.9594371  12.8281694   7.6969016  )
        48           Si  tau(  48) = (  17.9594371  12.8281694  17.9594371  )
        49           Si  tau(  49) = (   2.5656339   7.6969016   7.6969016  )
        50           Si  tau(  50) = (   2.5656339   7.6969016  17.9594371  )
        51           Si  tau(  51) = (   2.5656339  17.9594371   7.6969016  )
        52           Si  tau(  52) = (   2.5656339  17.9594371  17.9594371  )
        53           Si  tau(  53) = (  12.8281694   7.6969016   7.6969016  )
        54           Si  tau(  54) = (  12.8281694   7.6969016  17.9594371  )
        55           Si  tau(  55) = (  12.8281694  17.9594371   7.6969016  )
        56           Si  tau(  56) = (  12.8281694  17.9594371  17.9594371  )
        57           Si  tau(  57) = (   2.5656339   2.5656339   2.5656339  )
        58           Si  tau(  58) = (   2.5656339   2.5656339  12.8281694  )
        59           Si  tau(  59) = (   2.5656339  12.8281694   2.5656339  )
        60           Si  tau(  60) = (   2.5656339  12.8281694  12.8281694  )
        61           Si  tau(  61) = (  12.8281694   2.5656339   2.5656339  )
        62           Si  tau(  62) = (  12.8281694   2.5656339  12.8281694  )
        63           Si  tau(  63) = (  12.8281694  12.8281694   2.5656339  )
        64           Si  tau(  64) = (  12.8281694  12.8281694  12.8281694  )

   Crystallographic axes

     site n.     atom                  positions (cryst. coord.)
         1           Ge  tau(   1) = (  0.0000000  0.0000000  0.0000000  )
         2           Si  tau(   2) = (  0.0000000  0.0000000  0.5000000  )
         3           Si  tau(   3) = (  0.0000000  0.5000000  0.0000000  )
         4           Si  tau(   4) = (  0.0000000  0.5000000  0.5000000  )
         5           Si  tau(   5) = (  0.5000000  0.0000000  0.0000000  )
         6           Si  tau(   6) = (  0.5000000  0.0000000  0.5000000  )
         7           Si  tau(   7) = (  0.5000000  0.5000000  0.0000000  )
[...]
     atom   23 type  2   force =    -0.00000418    0.00000683    0.00000418
     atom   24 type  2   force =    -0.00000418   -0.00000683   -0.00000418
     atom   25 type  2   force =    -0.00008217   -0.00008217    0.00005363
     atom   26 type  2   force =     0.00000418    0.00000418   -0.00000683
     atom   27 type  2   force =    -0.00008217    0.00008217   -0.00005363
     atom   28 type  2   force =     0.00000418   -0.00000418    0.00000683
     atom   29 type  2   force =     0.00008217   -0.00008217   -0.00005363
     atom   30 type  2   force =    -0.00000418    0.00000418    0.00000683
     atom   31 type  2   force =     0.00008217    0.00008217    0.00005363
     atom   32 type  2   force =    -0.00000418   -0.00000418   -0.00000683
     atom   33 type  2   force =    -0.00000608   -0.00000608   -0.00000627
     atom   34 type  2   force =    -0.00000212   -0.00000212    0.00000212
     atom   35 type  2   force =     0.00001107   -0.00000418    0.00000418
     atom   36 type  2   force =    -0.00000608    0.00000627    0.00000608
     atom   37 type  2   force =    -0.00000418    0.00001107    0.00000418
     atom   38 type  2   force =     0.00000627   -0.00000608    0.00000608
     atom   39 type  2   force =    -0.00040990   -0.00040990    0.00040990
     atom   40 type  2   force =    -0.00000418   -0.00000418   -0.00001107
     atom   41 type  2   force =    -0.00000608   -0.00000627   -0.00000608
     atom   42 type  2   force =     0.00001107    0.00000418   -0.00000418
     atom   43 type  2   force =    -0.00000212    0.00000212   -0.00000212
     atom   44 type  2   force =    -0.00000608    0.00000608    0.00000627
     atom   45 type  2   force =    -0.00000418    0.00000418    0.00001107
     atom   46 type  2   force =    -0.00040990    0.00040990   -0.00040990
     atom   47 type  2   force =     0.00000627    0.00000608   -0.00000608
     atom   48 type  2   force =    -0.00000418   -0.00001107   -0.00000418
     atom   49 type  2   force =    -0.00000627   -0.00000608   -0.00000608
     atom   50 type  2   force =     0.00000418    0.00001107   -0.00000418
     atom   51 type  2   force =     0.00000418   -0.00000418    0.00001107
     atom   52 type  2   force =     0.00040990   -0.00040990   -0.00040990
     atom   53 type  2   force =     0.00000212   -0.00000212   -0.00000212
     atom   54 type  2   force =     0.00000608   -0.00000608    0.00000627
     atom   55 type  2   force =     0.00000608    0.00000627   -0.00000608
     atom   56 type  2   force =    -0.00001107   -0.00000418   -0.00000418
     atom   57 type  2   force =     0.00040990    0.00040990    0.00040990
     atom   58 type  2   force =     0.00000418    0.00000418   -0.00001107
     atom   59 type  2   force =     0.00000418   -0.00001107    0.00000418
     atom   60 type  2   force =    -0.00000627    0.00000608    0.00000608
     atom   61 type  2   force =    -0.00001107    0.00000418    0.00000418
     atom   62 type  2   force =     0.00000608   -0.00000627    0.00000608
     atom   63 type  2   force =     0.00000608    0.00000608   -0.00000627
     atom   64 type  2   force =     0.00000212    0.00000212    0.00000212
     The Hubbard contrib.    to forces
     atom    1 type  1   force =     0.00000000    0.00000000    0.00000000
     atom    2 type  2   force =     0.00000000    0.00000000    0.00000000
     atom    3 type  2   force =     0.00000000    0.00000000    0.00000000
     atom    4 type  2   force =     0.00000000    0.00000000    0.00000000
     atom    5 type  2   force =     0.00000000    0.00000000    0.00000000
     atom    6 type  2   force =     0.00000000    0.00000000    0.00000000
     atom    7 type  2   force =     0.00000000    0.00000000    0.00000000
     atom    8 type  2   force =     0.00000000    0.00000000    0.00000000
     atom    9 type  2   force =     0.00000000    0.00000000    0.00000000
     atom   10 type  2   force =     0.00000000    0.00000000    0.00000000
     atom   11 type  2   force =     0.00000000    0.00000000    0.00000000
     atom   12 type  2   force =     0.00000000    0.00000000    0.00000000
     atom   13 type  2   force =     0.00000000    0.00000000    0.00000000
     atom   14 type  2   force =     0.00000000    0.00000000    0.00000000
     atom   15 type  2   force =     0.00000000    0.00000000    0.00000000
     atom   16 type  2   force =     0.00000000    0.00000000    0.00000000
     atom   17 type  2   force =     0.00000000    0.00000000    0.00000000
     atom   18 type  2   force =     0.00000000    0.00000000    0.00000000
     atom   19 type  2   force =     0.00000000    0.00000000    0.00000000
     atom   20 type  2   force =     0.00000000    0.00000000    0.00000000
     atom   21 type  2   force =     0.00000000    0.00000000    0.00000000
     atom   22 type  2   force =     0.00000000    0.00000000    0.00000000
     atom   23 type  2   force =     0.00000000    0.00000000    0.00000000
     atom   24 type  2   force =     0.00000000    0.00000000    0.00000000
     atom   25 type  2   force =     0.00000000    0.00000000    0.00000000
     atom   26 type  2   force =     0.00000000    0.00000000    0.00000000
     atom   27 type  2   force =     0.00000000    0.00000000    0.00000000
     atom   28 type  2   force =     0.00000000    0.00000000    0.00000000
     atom   29 type  2   force =     0.00000000    0.00000000    0.00000000
     atom   30 type  2   force =     0.00000000    0.00000000    0.00000000
     atom   31 type  2   force =     0.00000000    0.00000000    0.00000000
     atom   32 type  2   force =     0.00000000    0.00000000    0.00000000
     atom   33 type  2   force =     0.00000000    0.00000000    0.00000000
     atom   34 type  2   force =     0.00000000    0.00000000    0.00000000
     atom   35 type  2   force =     0.00000000    0.00000000    0.00000000
     atom   36 type  2   force =     0.00000000    0.00000000    0.00000000
     atom   37 type  2   force =     0.00000000    0.00000000    0.00000000
     atom   38 type  2   force =     0.00000000    0.00000000    0.00000000
     atom   39 type  2   force =     0.00000000    0.00000000    0.00000000
     atom   40 type  2   force =     0.00000000    0.00000000    0.00000000
     atom   41 type  2   force =     0.00000000    0.00000000    0.00000000
     atom   42 type  2   force =     0.00000000    0.00000000    0.00000000
     atom   43 type  2   force =     0.00000000    0.00000000    0.00000000
     atom   44 type  2   force =     0.00000000    0.00000000    0.00000000
     atom   45 type  2   force =     0.00000000    0.00000000    0.00000000
     atom   46 type  2   force =     0.00000000    0.00000000    0.00000000
     atom   47 type  2   force =     0.00000000    0.00000000    0.00000000
     atom   48 type  2   force =     0.00000000    0.00000000    0.00000000
     atom   49 type  2   force =     0.00000000    0.00000000    0.00000000
     atom   50 type  2   force =     0.00000000    0.00000000    0.00000000
     atom   51 type  2   force =     0.00000000    0.00000000    0.00000000
     atom   52 type  2   force =     0.00000000    0.00000000    0.00000000
     atom   53 type  2   force =     0.00000000    0.00000000    0.00000000
     atom   54 type  2   force =     0.00000000    0.00000000    0.00000000
     atom   55 type  2   force =     0.00000000    0.00000000    0.00000000
     atom   56 type  2   force =     0.00000000    0.00000000    0.00000000
     atom   57 type  2   force =     0.00000000    0.00000000    0.00000000
     atom   58 type  2   force =     0.00000000    0.00000000    0.00000000
     atom   59 type  2   force =     0.00000000    0.00000000    0.00000000
     atom   60 type  2   force =     0.00000000    0.00000000    0.00000000
     atom   61 type  2   force =     0.00000000    0.00000000    0.00000000
     atom   62 type  2   force =     0.00000000    0.00000000    0.00000000
     atom   63 type  2   force =     0.00000000    0.00000000    0.00000000
     atom   64 type  2   force =     0.00000000    0.00000000    0.00000000
     The SCF correction term to forces
     atom    1 type  1   force =     0.00000000   -0.00000000   -0.00000000
     atom    2 type  2   force =    -0.00000000   -0.00000000    0.00000000
     atom    3 type  2   force =     0.00000000   -0.00000000   -0.00000000
     atom    4 type  2   force =     0.00000000    0.00000000   -0.00000000
     atom    5 type  2   force =     0.00000000   -0.00000000   -0.00000000
     atom    6 type  2   force =     0.00000000   -0.00000000   -0.00000000
     atom    7 type  2   force =     0.00000000   -0.00000000    0.00000000
     atom    8 type  2   force =    -0.00000000   -0.00000000   -0.00000000
     atom    9 type  2   force =     0.00000015   -0.00000006   -0.00000006
     atom   10 type  2   force =    -0.00000015   -0.00000006    0.00000006
     atom   11 type  2   force =    -0.00000015    0.00000006   -0.00000006
     atom   12 type  2   force =     0.00000015    0.00000006    0.00000006
     atom   13 type  2   force =    -0.00000003    0.00000003    0.00000003
     atom   14 type  2   force =     0.00000003    0.00000003   -0.00000003
     atom   15 type  2   force =     0.00000003   -0.00000003    0.00000003
     atom   16 type  2   force =    -0.00000003   -0.00000003   -0.00000003
     atom   17 type  2   force =    -0.00000006    0.00000015   -0.00000006
     atom   18 type  2   force =    -0.00000006   -0.00000015    0.00000006
     atom   19 type  2   force =     0.00000003   -0.00000003    0.00000003
     atom   20 type  2   force =     0.00000003    0.00000003   -0.00000003
     atom   21 type  2   force =     0.00000006   -0.00000015   -0.00000006
     atom   22 type  2   force =     0.00000006    0.00000015    0.00000006
     atom   23 type  2   force =    -0.00000003    0.00000003    0.00000003
     atom   24 type  2   force =    -0.00000003   -0.00000003   -0.00000003
     atom   25 type  2   force =    -0.00000006   -0.00000006    0.00000015
     atom   26 type  2   force =     0.00000003    0.00000003   -0.00000003
     atom   27 type  2   force =    -0.00000006    0.00000006   -0.00000015
     atom   28 type  2   force =     0.00000003   -0.00000003    0.00000003
     atom   29 type  2   force =     0.00000006   -0.00000006   -0.00000015
     atom   30 type  2   force =    -0.00000003    0.00000003    0.00000003
     atom   31 type  2   force =     0.00000006    0.00000006    0.00000015
     atom   32 type  2   force =    -0.00000003   -0.00000003   -0.00000003
     atom   33 type  2   force =    -0.00000015   -0.00000015    0.00000032
     atom   34 type  2   force =    -0.00000047   -0.00000047    0.00000047
     atom   35 type  2   force =    -0.00000010   -0.00000020    0.00000020
     atom   36 type  2   force =    -0.00000015   -0.00000032    0.00000015
     atom   37 type  2   force =    -0.00000020   -0.00000010    0.00000020
     atom   38 type  2   force =    -0.00000032   -0.00000015    0.00000015
     atom   39 type  2   force =    -0.00000009   -0.00000009    0.00000009
     atom   40 type  2   force =    -0.00000020   -0.00000020    0.00000010
     atom   41 type  2   force =    -0.00000015    0.00000032   -0.00000015
     atom   42 type  2   force =    -0.00000010    0.00000020   -0.00000020
     atom   43 type  2   force =    -0.00000047    0.00000047   -0.00000047
     atom   44 type  2   force =    -0.00000015    0.00000015   -0.00000032
     atom   45 type  2   force =    -0.00000020    0.00000020   -0.00000010
     atom   46 type  2   force =    -0.00000009    0.00000009   -0.00000009
     atom   47 type  2   force =    -0.00000032    0.00000015   -0.00000015
     atom   48 type  2   force =    -0.00000020    0.00000010   -0.00000020
     atom   49 type  2   force =     0.00000032   -0.00000015   -0.00000015
     atom   50 type  2   force =     0.00000020   -0.00000010   -0.00000020
     atom   51 type  2   force =     0.00000020   -0.00000020   -0.00000010
     atom   52 type  2   force =     0.00000009   -0.00000009   -0.00000009
     atom   53 type  2   force =     0.00000047   -0.00000047   -0.00000047
     atom   54 type  2   force =     0.00000015   -0.00000015   -0.00000032
     atom   55 type  2   force =     0.00000015   -0.00000032   -0.00000015
     atom   56 type  2   force =     0.00000010   -0.00000020   -0.00000020
     atom   57 type  2   force =     0.00000009    0.00000009    0.00000009
     atom   58 type  2   force =     0.00000020    0.00000020    0.00000010
     atom   59 type  2   force =     0.00000020    0.00000010    0.00000020
     atom   60 type  2   force =     0.00000032    0.00000015    0.00000015
     atom   61 type  2   force =     0.00000010    0.00000020    0.00000020
     atom   62 type  2   force =     0.00000015    0.00000032    0.00000015
     atom   63 type  2   force =     0.00000015    0.00000015    0.00000032
     atom   64 type  2   force =     0.00000047    0.00000047    0.00000047

     Total force =     0.030581     Total SCF correction =     0.000002

     Computing stress (Cartesian axis) and pressure

 Really copied psic H->D
 Really copied psic D->H
 Really copied psic H->D
 Really copied psic D->H
 Really copied psic H->D
 Really copied psic D->H
          total   stress  (Ry/bohr**3)                   (kbar)     P=      -14.03
  -0.00009535   0.00000000   0.00000000          -14.03        0.00        0.00
   0.00000000  -0.00009535   0.00000000            0.00      -14.03        0.00
   0.00000000   0.00000000  -0.00009535            0.00        0.00      -14.03

     kinetic stress (kbar)   2343.10      0.00      0.00
                                0.00   2343.10      0.00
                                0.00      0.00   2343.10

     local   stress (kbar)   -721.17      0.00      0.00
                                0.00   -721.17      0.00
                                0.00      0.00   -721.17

     nonloc. stress (kbar)   2043.43      0.00      0.00
                                0.00   2043.43      0.00
                                0.00      0.00   2043.43

     hartree stress (kbar)    858.59     -0.00      0.00
                               -0.00    858.59      0.00
                                0.00      0.00    858.59

     exc-cor stress (kbar)   1363.21      0.00      0.00
                                0.00   1363.21      0.00
                                0.00      0.00   1363.21

     corecor stress (kbar)  -2536.57     -0.00      0.00
                               -0.00  -2536.57      0.00
                                0.00      0.00  -2536.57

     ewald   stress (kbar)  -3364.62      0.00      0.00
                                0.00  -3364.62      0.00
                                0.00      0.00  -3364.62

     hubbard stress (kbar)      0.00      0.00      0.00
                                0.00      0.00      0.00
                                0.00      0.00      0.00

     DFT-D   stress (kbar)      0.00      0.00      0.00
                                0.00      0.00      0.00
                                0.00      0.00      0.00

     XDM     stress (kbar)      0.00      0.00      0.00
                                0.00      0.00      0.00
                                0.00      0.00      0.00

     dft-nl  stress (kbar)      0.00      0.00      0.00
                                0.00      0.00      0.00
                                0.00      0.00      0.00

     TS-vdW  stress (kbar)      0.00      0.00      0.00
                                0.00      0.00      0.00
                                0.00      0.00      0.00

     General routines
                                        0.04s GPU  (      21 calls)
                                       12.17s GPU  (    4158 calls)

     Parallel routines

   This run was terminated on:  17: 3:32   6Nov2021

   JOB DONE.
Warning: ieee_divide_by_zero is signaling
Warning: ieee_inexact is signaling
FORTRAN STOP
Warning: ieee_divide_by_zero is signaling
Warning: ieee_inexact is signaling
FORTRAN STOP
Warning: ieee_divide_by_zero is signaling
Warning: ieee_underflow is signaling
Warning: ieee_inexact is signaling
FORTRAN STOP
Warning: ieee_divide_by_zero is signaling
Warning: ieee_inexact is signaling
FORTRAN STOP

Batch Job Summary Report (version 21.01.1) for Job "test_scf" (34794493) on daint

Job information (1/3)
2021-11-06T17:01:17 2021-11-06T17:01:17 2021-11-06T17:01:18 2021-11-06T17:03:33   00:02:15   00:40:00

Job information (2/3)
    Username      Account    Partition   NNodes        Energy
      antonk      csstaff       normal        4    102.284 kJ

Job information (3/3) - GPU utilization data
   Node name       Usage      Max mem Execution time