     Program PWSCF v.6.8 starts on  8Nov2021 at 15: 1:22

     Reading input from pw.in
     Message from routine read_cards :
     DEPRECATED: no units specified in CELL_PARAMETERS card

     Current dimensions of program PWSCF are:
     Max number of different atomic species (ntypx) = 10
     Max number of k-points (npk) =  40000
     Max angular momentum in pseudopotentials (lmaxx) =  4
     Message from routine cell_base_init:
     DEPRECATED: use true lattice parameter, not A to a.u. conversion factor
     Message from routine setup:
     using ibrav=0 with symmetry is DISCOURAGED, use correct ibrav instead

     Subspace diagonalization in iterative solution of the eigenvalue problem:
     a serial algorithm will be used

     Using Slab Decomposition

     bravais-lattice index     =            0
     lattice parameter (alat)  =       1.0000  a.u.
     unit-cell volume          =    8646.7719 (a.u.)^3
     number of atoms/cell      =           64
     number of atomic types    =            2
     number of electrons       =       266.00
     number of Kohn-Sham states=          800
     kinetic-energy cutoff     =      50.0000  Ry
     charge density cutoff     =     800.0000  Ry
     scf convergence threshold =      1.0E-11
     mixing beta               =       0.7000
     number of iterations used =            8  plain     mixing
     Exchange-correlation= SLA  PZ   NOGX NOGC
                           (   1   1   0   0   0   0   0)

     celldm(1)=   1.000000  celldm(2)=   0.000000  celldm(3)=   0.000000
     celldm(4)=   0.000000  celldm(5)=   0.000000  celldm(6)=   0.000000

     crystal axes: (cart. coord. in units of alat)
               a(1) = (  20.525071   0.000000   0.000000 )
               a(2) = (   0.000000  20.525071   0.000000 )
               a(3) = (   0.000000   0.000000  20.525071 )

     reciprocal axes: (cart. coord. in units 2 pi/alat)
               b(1) = (  0.048721  0.000000  0.000000 )
               b(2) = (  0.000000  0.048721  0.000000 )
               b(3) = (  0.000000  0.000000  0.048721 )

     PseudoPot. # 1 for Ge read from file:
     ./ge_lda_v1.4.uspp.F.UPF
     MD5 check sum: bf9d52b59cc8a669818bb2b52e0c2ba0
     Pseudo is Ultrasoft + core correction, Zval = 14.0
     Generated by new atomic code, or converted to UPF format
     Using radial grid of  873 points,  6 beta functions with:
                l(1) =   0
                l(2) =   0
                l(3) =   1
                l(4) =   1
                l(5) =   2
                l(6) =   2
     Q(r) pseudized with  8 coefficients,  rinner =    1.400   1.400   1.400
                                                       1.400   1.400

     PseudoPot. # 2 for Si read from file:
     ./si_lda_v1.uspp.F.UPF
     MD5 check sum: b5ade7b37ee992b02096e360e546dc2d
     Pseudo is Ultrasoft + core correction, Zval =  4.0
     Generated by new atomic code, or converted to UPF format
     Using radial grid of  899 points,  6 beta functions with:
                l(1) =   0
                l(2) =   0
                l(3) =   1
                l(4) =   1
                l(5) =   2
                l(6) =   2
     Q(r) pseudized with  8 coefficients,  rinner =    0.900   0.900   0.900
                                                       0.900   0.900

     atomic species   valence    mass     pseudopotential
        Ge            14.00    72.61000     Ge( 1.00)
        Si             4.00    28.08550     Si( 1.00)

     24 Sym. Ops. (no inversion) found

                                    s                        frac. trans.

      isym =  1     identity

 cryst.   s( 1) = (     1          0          0      )
                  (     0          1          0      )
                  (     0          0          1      )

 cart.    s( 1) = (  1.0000000  0.0000000  0.0000000 )
                  (  0.0000000  1.0000000  0.0000000 )
                  (  0.0000000  0.0000000  1.0000000 )

      isym =  2     180 deg rotation - cart. axis [0,0,1]

[...]

 cryst.   s( 9) = (     0          1          0      )
                  (     0          0          1      )
                  (     1          0          0      )

 cart.    s( 9) = (  0.0000000  0.0000000  1.0000000 )
                  (  1.0000000  0.0000000  0.0000000 )
                  (  0.0000000  1.0000000  0.0000000 )

[...]

 cryst.   s(10) = (     0         -1          0      )
                  (     0          0         -1      )
                  (     1          0          0      )

 cart.    s(10) = (  0.0000000  0.0000000  1.0000000 )
                  ( -1.0000000  0.0000000  0.0000000 )
                  (  0.0000000 -1.0000000  0.0000000 )

[...]

      isym = 12     120 deg rotation - cart. axis [-1,-1,1]

[...]

      isym = 13     inv. 180 deg rotation - cart. axis [1,1,0]

[...]

      isym = 24     inv.  90 deg rotation - cart. axis [1,0,0]

 cryst.   s(24) = (    -1          0          0      )
                  (     0          0         -1      )
                  (     0          1          0      )

 cart.    s(24) = ( -1.0000000  0.0000000  0.0000000 )
                  (  0.0000000  0.0000000  1.0000000 )
                  (  0.0000000 -1.0000000  0.0000000 )

   Cartesian axes

     site n.     atom                  positions (alat units)
         1           Ge  tau(   1) = (   0.0000000   0.0000000   0.0000000  )
         2           Si  tau(   2) = (   0.0000000   0.0000000  10.2625355  )
         3           Si  tau(   3) = (   0.0000000  10.2625355   0.0000000  )
         4           Si  tau(   4) = (   0.0000000  10.2625355  10.2625355  )
         5           Si  tau(   5) = (  10.2625355   0.0000000   0.0000000  )
         6           Si  tau(   6) = (  10.2625355   0.0000000  10.2625355  )
         7           Si  tau(   7) = (  10.2625355  10.2625355   0.0000000  )
         8           Si  tau(   8) = (  10.2625355  10.2625355  10.2625355  )
         9           Si  tau(   9) = (   0.0000000   5.1312678   5.1312678  )
        10           Si  tau(  10) = (   0.0000000   5.1312678  15.3938033  )
        11           Si  tau(  11) = (   0.0000000  15.3938033   5.1312678  )
        12           Si  tau(  12) = (   0.0000000  15.3938033  15.3938033  )
        13           Si  tau(  13) = (  10.2625355   5.1312678   5.1312678  )
        14           Si  tau(  14) = (  10.2625355   5.1312678  15.3938033  )
        15           Si  tau(  15) = (  10.2625355  15.3938033   5.1312678  )
        16           Si  tau(  16) = (  10.2625355  15.3938033  15.3938033  )
        17           Si  tau(  17) = (   5.1312678   0.0000000   5.1312678  )
        18           Si  tau(  18) = (   5.1312678   0.0000000  15.3938033  )
        19           Si  tau(  19) = (   5.1312678  10.2625355   5.1312678  )
        20           Si  tau(  20) = (   5.1312678  10.2625355  15.3938033  )
        21           Si  tau(  21) = (  15.3938033   0.0000000   5.1312678  )
        22           Si  tau(  22) = (  15.3938033   0.0000000  15.3938033  )
        23           Si  tau(  23) = (  15.3938033  10.2625355   5.1312678  )
        24           Si  tau(  24) = (  15.3938033  10.2625355  15.3938033  )
        25           Si  tau(  25) = (   5.1312678   5.1312678   0.0000000  )
        26           Si  tau(  26) = (   5.1312678   5.1312678  10.2625355  )
        27           Si  tau(  27) = (   5.1312678  15.3938033   0.0000000  )
        28           Si  tau(  28) = (   5.1312678  15.3938033  10.2625355  )
        29           Si  tau(  29) = (  15.3938033   5.1312678   0.0000000  )
        30           Si  tau(  30) = (  15.3938033   5.1312678  10.2625355  )
        31           Si  tau(  31) = (  15.3938033  15.3938033   0.0000000  )
        32           Si  tau(  32) = (  15.3938033  15.3938033  10.2625355  )
        33           Si  tau(  33) = (   7.6969016   7.6969016   2.5656339  )
        34           Si  tau(  34) = (   7.6969016   7.6969016  12.8281694  )
        35           Si  tau(  35) = (   7.6969016  17.9594371   2.5656339  )
        36           Si  tau(  36) = (   7.6969016  17.9594371  12.8281694  )
        37           Si  tau(  37) = (  17.9594371   7.6969016   2.5656339  )
        38           Si  tau(  38) = (  17.9594371   7.6969016  12.8281694  )
        39           Si  tau(  39) = (  17.9594371  17.9594371   2.5656339  )
        40           Si  tau(  40) = (  17.9594371  17.9594371  12.8281694  )
        41           Si  tau(  41) = (   7.6969016   2.5656339   7.6969016  )
        42           Si  tau(  42) = (   7.6969016   2.5656339  17.9594371  )
        43           Si  tau(  43) = (   7.6969016  12.8281694   7.6969016  )
        44           Si  tau(  44) = (   7.6969016  12.8281694  17.9594371  )
        45           Si  tau(  45) = (  17.9594371   2.5656339   7.6969016  )
        46           Si  tau(  46) = (  17.9594371   2.5656339  17.9594371  )
        47           Si  tau(  47) = (  17.9594371  12.8281694   7.6969016  )
        48           Si  tau(  48) = (  17.9594371  12.8281694  17.9594371  )
        49           Si  tau(  49) = (   2.5656339   7.6969016   7.6969016  )
        50           Si  tau(  50) = (   2.5656339   7.6969016  17.9594371  )
        51           Si  tau(  51) = (   2.5656339  17.9594371   7.6969016  )
        52           Si  tau(  52) = (   2.5656339  17.9594371  17.9594371  )
        53           Si  tau(  53) = (  12.8281694   7.6969016   7.6969016  )
        54           Si  tau(  54) = (  12.8281694   7.6969016  17.9594371  )
        55           Si  tau(  55) = (  12.8281694  17.9594371   7.6969016  )
        56           Si  tau(  56) = (  12.8281694  17.9594371  17.9594371  )
        57           Si  tau(  57) = (   2.5656339   2.5656339   2.5656339  )
        58           Si  tau(  58) = (   2.5656339   2.5656339  12.8281694  )
        59           Si  tau(  59) = (   2.5656339  12.8281694   2.5656339  )
        60           Si  tau(  60) = (   2.5656339  12.8281694  12.8281694  )
        61           Si  tau(  61) = (  12.8281694   2.5656339   2.5656339  )
        62           Si  tau(  62) = (  12.8281694   2.5656339  12.8281694  )
        63           Si  tau(  63) = (  12.8281694  12.8281694   2.5656339  )
        64           Si  tau(  64) = (  12.8281694  12.8281694  12.8281694  )

   Crystallographic axes

     site n.     atom                  positions (cryst. coord.)
         1           Ge  tau(   1) = (  0.0000000  0.0000000  0.0000000  )
         2           Si  tau(   2) = (  0.0000000  0.0000000  0.5000000  )
         3           Si  tau(   3) = (  0.0000000  0.5000000  0.0000000  )
         4           Si  tau(   4) = (  0.0000000  0.5000000  0.5000000  )
         5           Si  tau(   5) = (  0.5000000  0.0000000  0.0000000  )
         6           Si  tau(   6) = (  0.5000000  0.0000000  0.5000000  )
         7           Si  tau(   7) = (  0.5000000  0.5000000  0.0000000  )
         8           Si  tau(   8) = (  0.5000000  0.5000000  0.5000000  )
         9           Si  tau(   9) = (  0.0000000  0.2500000  0.2500000  )
        10           Si  tau(  10) = (  0.0000000  0.2500000  0.7500000  )
[...]
├ sirius::Force::calc_forces_us                                       1       3.63 s        1.17     100.00       3.63 s        3.63 s        3.63 s
├ sirius::Density::add_k_point_contribution_rg                       60       3.07 s        0.99     100.00      50.54 ms      49.73 ms      52.91 ms
├ sirius::Potential::xc                                              16       2.96 s        0.96     100.00     183.27 ms     179.57 ms     208.11 ms
├ sirius::Potential::xc_rg_nonmagnetic                               16       2.77 s        0.89     100.00     171.10 ms     167.05 ms     195.92 ms
├ sirius::Beta_projectors_base::generate                            459       2.18 s        0.70     100.00       4.25 ms       3.98 ms       6.80 ms
├ Eigensolver_magma|zhegvdx                                           8       2.05 s        0.66     100.00     101.98 ms      99.48 ms       1.33 s
├ sirius_api::sirius_get_wave_functions                               4       1.98 s        0.64     100.00     442.37 ms     441.27 ms     658.57 ms
├ sirius::Density::mix                                               15       1.71 s        0.55     100.00     134.96 ms      42.78 ms     135.51 ms
├ sirius::Stress|ewald                                                1       1.71 s        0.55     100.00       1.71 s        1.71 s        1.71 s
├ sirius::Stress|nonloc                                               1       1.62 s        0.52     100.00       1.62 s        1.62 s        1.62 s
├ sirius::Non_local_functor::add_k_point                              8       1.60 s        0.51     100.00     199.04 ms     110.19 ms     291.39 ms
├ hinit0                                                              1       1.55 s        0.50     100.00       1.55 s        1.55 s        1.55 s
├ sirius::Density::add_k_point_contribution_dm                       60       1.37 s        0.44     100.00      22.67 ms      22.54 ms      23.63 ms
├ sirius::initialize                                                  1       1.30 s        0.42     100.00       1.30 s        1.30 s        1.30 s
├ sirius::Density::get_magnetisation                                 16       1.05 s        0.34     100.00      65.95 ms      65.36 ms      66.33 ms
├ sirius::Density::compute_atomic_mag_mom                            16       1.05 s        0.34     100.00      65.93 ms      65.35 ms      66.32 ms
├ sirius::Smooth_periodic_function::fft_transform                   119       1.03 s        0.33     100.00      11.23 ms       1.27 ms      11.77 ms
├ wfcinit                                                             1       1.03 s        0.33     100.00       1.03 s        1.03 s        1.03 s
├ sirius::Potential::poisson                                         16       1.01 s        0.33     100.00      63.31 ms      63.26 ms      63.90 ms
├ sddk::Gvec_shells::remap_forward                                   31     948.18 ms       0.31     100.00      29.59 ms      27.52 ms      35.16 ms
├ sirius::Periodic_function::integrate                               17     866.91 ms       0.28     100.00      50.93 ms      50.86 ms      51.47 ms
├ sirius::Stress|us|prepare                                          18     826.83 ms       0.27     100.00      45.65 ms       2.60 ms      89.67 ms
├ init_us_1                                                           1     798.43 ms       0.26     100.00     798.43 ms     798.43 ms     798.43 ms
├ sddk::Gvec_shells::remap_backward                                  31     797.82 ms       0.26     100.00      25.54 ms      25.36 ms      28.90 ms
├ sddk::orthogonalize|tmtrx                                         335     765.35 ms       0.25     100.00     100.19 us      12.31 us       9.30 ms
├ sirius::Force::calc_forces_nonloc                                   1     755.18 ms       0.24     100.00     755.18 ms     755.18 ms     755.18 ms
├ sirius::normalized_preconditioned_residuals                       290     653.59 ms       0.21     100.00     597.83 us     206.10 us      11.01 ms
├ sddk::Gvec::init                                                   10     610.51 ms       0.20     100.00       3.00 ms       2.70 ms     533.40 ms
├ potinit                                                             1     595.72 ms       0.19     100.00     595.72 ms     595.72 ms     595.72 ms
├ sirius::Force::calc_forces_ewald                                    1     554.50 ms       0.18     100.00     554.50 ms     554.50 ms     554.50 ms
├ sddk::Gvec_shells                                                   1     554.16 ms       0.18     100.00     554.16 ms     554.16 ms     554.16 ms
├ sddk::Gvec::find_gvec_shells                                        2     486.63 ms       0.16     100.00     243.31 ms      45.15 ms     441.48 ms
├ sirius::Augmentation_operator_gvec_deriv                            1     375.46 ms       0.12     100.00     375.46 ms     375.46 ms     375.46 ms
├ sirius::Density::symmetrize_density_matrix                         15     357.07 ms       0.12     100.00      23.59 ms      23.54 ms      26.53 ms
├ v_of_rho                                                            1     352.26 ms       0.11     100.00     352.26 ms     352.26 ms     352.26 ms
├ sirius::Hamiltonian_k::get_h_o_diag                                60     283.59 ms       0.09     100.00       4.22 ms       4.06 ms      33.83 ms
├ sirius::Density::initial_density                                    1     261.30 ms       0.08     100.00     261.30 ms     261.30 ms     261.30 ms
├ sirius::Density::mixer_output                                      15     233.07 ms       0.08     100.00      15.53 ms      15.50 ms      15.60 ms
├ sirius::Force::calc_forces_core                                     1     227.68 ms       0.07     100.00     227.68 ms     227.68 ms     227.68 ms
├ sirius::Force::calc_forces_vloc                                     1     226.87 ms       0.07     100.00     226.87 ms     226.87 ms     226.87 ms
├ sirius::Band::initialize_subspace|kp|wf                             8     221.68 ms       0.07     100.00      27.73 ms      27.62 ms      27.81 ms
├ sirius::Force::calc_forces_scf_corr                                 1     220.00 ms       0.07     100.00     220.00 ms     220.00 ms     220.00 ms
├ sirius::Potential                                                   1     207.89 ms       0.07     100.00     207.89 ms     207.89 ms     207.89 ms
├ v_xc                                                                1     206.75 ms       0.07     100.00     206.75 ms     206.75 ms     206.75 ms
├ sirius::Stress|us|phase_fac                                         2     204.26 ms       0.07     100.00     102.13 ms       3.24 ms     201.02 ms
├ sirius::finalize                                                    1     200.97 ms       0.06     100.00     200.97 ms     200.97 ms     200.97 ms
├ qe|setlocal                                                         1     199.21 ms       0.06     100.00     199.21 ms     199.21 ms     199.21 ms
├ sirius::Density                                                     2     161.87 ms       0.05     100.00      80.94 ms      79.67 ms      82.20 ms
├ sirius::Beta_projectors_strain_deriv::generate_pw_coefs_t           4     154.93 ms       0.05     100.00      38.72 ms      38.57 ms      38.91 ms
├ sirius::K_point::generate_atomic_wave_functions                     8     150.79 ms       0.05     100.00      18.72 ms      18.57 ms      19.44 ms
├ sirius::Stress|vloc                                                 1     145.59 ms       0.05     100.00     145.59 ms     145.59 ms     145.59 ms
├ v_h                                                                 1     145.47 ms       0.05     100.00     145.47 ms     145.47 ms     145.47 ms
├ sirius::Beta_projectors_base::prepare                             144     142.53 ms       0.05     100.00       6.66 us       2.33 us      26.68 ms
├ init_vloc                                                           1     142.13 ms       0.05     100.00     142.13 ms     142.13 ms     142.13 ms
├ fft                                                                 6     108.94 ms       0.04     100.00      16.23 ms      15.70 ms      28.30 ms
├ sirius::Density::update                                             2      98.00 ms       0.03     100.00      49.00 ms      48.74 ms      49.26 ms
├ qe|set_vrs                                                          1      93.92 ms       0.03     100.00      93.92 ms      93.92 ms      93.92 ms
├ sirius::Radial_integrals|atomic_wfs                                 4      92.15 ms       0.03     100.00      18.72 ms       1.34 us      54.72 ms
├ sirius::Periodic_function::add                                     32      91.74 ms       0.03     100.00       2.84 ms       2.71 ms       3.02 ms
├ sirius::Hamiltonian0                                               17      90.60 ms       0.03     100.00       5.07 ms       5.03 ms       8.44 ms
├ sirius::Density::generate_pseudo_core_charge_density                2      89.70 ms       0.03     100.00      44.85 ms      44.65 ms      45.05 ms
├ sirius::K_point_set::initialize                                     1      89.61 ms       0.03     100.00      89.61 ms      89.61 ms      89.61 ms
├ sirius::K_point::initialize                                         8      89.50 ms       0.03     100.00      11.54 ms       9.33 ms      12.33 ms
├ sirius::Stress|har                                                  1      78.12 ms       0.03     100.00      78.12 ms      78.12 ms      78.12 ms
├ interpolate                                                         1      68.25 ms       0.02     100.00      68.25 ms      68.25 ms      68.25 ms
├ sirius::K_point_set::find_band_occupancies                         15      67.81 ms       0.02     100.00       4.61 ms       3.51 ms       4.81 ms
├ sirius::Simulation_context::make_periodic_function                  7      67.02 ms       0.02     100.00      11.61 ms       4.09 ms      12.30 ms
├ sirius::Density::mixer_input                                       15      60.66 ms       0.02     100.00       4.04 ms       4.03 ms       4.07 ms
├ sirius::Potential::update                                           1      54.92 ms       0.02     100.00      54.92 ms      54.92 ms      54.92 ms
├ sirius::K_point::update                                             8      54.35 ms       0.02     100.00       6.93 ms       5.06 ms       7.87 ms
├ sirius::Local_operator                                             17      53.85 ms       0.02     100.00       2.91 ms       2.89 ms       6.09 ms
├ sirius::Augmentation_operator_gvec_deriv::prepare                   2      52.90 ms       0.02     100.00      26.45 ms      21.25 ms      31.65 ms
├ sirius::Potential::generate_local_potential                         1      50.79 ms       0.02     100.00      50.79 ms      50.79 ms      50.79 ms
├ sirius::Beta_projectors                                             8      43.75 ms       0.01     100.00       5.46 ms       4.00 ms       6.73 ms
├ sirius::K_point::generate_gkvec                                     8      31.85 ms       0.01     100.00       3.98 ms       3.61 ms       4.40 ms
├ qe|setup                                                            1      28.57 ms       0.01     100.00      28.57 ms      28.57 ms      28.57 ms
├ sirius::Beta_projectors::generate_pw_coefs_t                        8      26.48 ms       0.01     100.00       3.30 ms       2.60 ms       3.87 ms
├ sirius::Q_operator::initialize                                     17      22.20 ms       0.01     100.00       1.31 ms       1.27 ms       1.32 ms
├ sirius::Stress|kin                                                  1      17.17 ms       0.01     100.00      17.17 ms      17.17 ms      17.17 ms
├ sirius::Unit_cell::update                                           2      13.60 ms       0.00     100.00       6.80 ms       6.61 ms       6.99 ms
├ sirius::Hamiltonian_k                                              68      12.66 ms       0.00     100.00     198.99 us     124.49 us     218.22 us
├ sirius::Local_operator::prepare_k                                  68      11.99 ms       0.00     100.00     189.32 us     114.19 us     207.19 us
├ sirius::D_operator::initialize                                     17      11.41 ms       0.00     100.00     670.54 us     665.59 us     685.76 us
├ sirius::Unit_cell::get_symmetry                                     2      11.32 ms       0.00     100.00       5.66 ms       5.57 ms       5.76 ms
├ sirius::Crystal_symmetry                                            2      11.23 ms       0.00     100.00       5.61 ms       5.51 ms       5.72 ms
├ sirius::Unit_cell::initialize                                       1       7.47 ms       0.00     100.00       7.47 ms       7.47 ms       7.47 ms
├ sirius::Simulation_context::init_atoms_to_grid_idx                  1       6.36 ms       0.00     100.00       6.36 ms       6.36 ms       6.36 ms
├ sirius::find_sym_atom                                              96       5.64 ms       0.00     100.00      58.63 us      57.83 us      71.75 us
├ sirius::Crystal_symmetry|spg                                        2       5.03 ms       0.00     100.00       2.51 ms       2.43 ms       2.60 ms
├ sirius::Unit_cell::find_nearest_neighbours                          2       2.24 ms       0.00     100.00       1.12 ms       1.03 ms       1.21 ms
├ sirius::Non_local_operator                                         34       1.95 ms       0.00     100.00      51.89 us      29.99 us      86.41 us
├ sirius::K_point_set::sync_band                                     30       1.55 ms       0.00     100.00      47.06 us      20.15 us      94.00 us
├ sddk::matrix_storage::remap_forward                               403       1.12 ms       0.00     100.00       2.51 us       1.15 us      12.72 us
├ ffts                                                                1       1.07 ms       0.00     100.00       1.07 ms       1.07 ms       1.07 ms
├ sirius::Atom_type::init                                             2     389.36 us       0.00     100.00     194.68 us     125.22 us     264.13 us
├ sirius::Augmentation_operator_gvec_deriv::generate_pw_coeffs        6     269.02 us       0.00     100.00      35.69 us      33.86 us      70.88 us
├ sirius::Force::symmetrize                                           6     245.74 us       0.00     100.00      38.99 us      36.40 us      48.51 us
├ sddk::wf_inner|scale_back                                         961     208.97 us       0.00     100.00     185.00 ns     100.00 ns      14.42 us
├ sddk::matrix_storage::remap_backward                              343     181.90 us       0.00     100.00     517.00 ns     176.00 ns       8.72 us
├ sddk::wf_inner|scale                                              961     146.96 us       0.00     100.00      73.00 ns      47.00 ns       9.32 us
├ sirius::Beta_projectors_base::dismiss                             144      99.07 us       0.00     100.00     445.50 ns     318.00 ns       9.47 us
├ sirius::Simulation_context::init_comm                               1      82.75 us       0.00     100.00      82.75 us      82.75 us      82.75 us
├ sirius::Crystal_symmetry|mag                                        2      55.64 us       0.00     100.00      27.82 us      22.99 us      32.65 us
├ sirius::K_point::K_point                                            8      45.37 us       0.00     100.00       5.13 us       4.88 us       9.00 us
├ qe|paw_potential                                                    1      10.30 us       0.00     100.00      10.30 us      10.30 us      10.30 us
├ sirius::Potential::generate_PAW_effective_potential                16       2.87 us       0.00     100.00     194.50 ns     129.00 ns     221.00 ns
├ qe|paw_becsum                                                       1       1.04 us       0.00     100.00       1.04 us       1.04 us       1.04 us
└ qe|punch                                                            1     515.00 ns       0.00     100.00     515.00 ns     515.00 ns     515.00 ns

Note: The following floating-point exceptions are signalling: IEEE_UNDERFLOW_FLAG IEEE_DENORMAL

Batch Job Summary Report (version 21.01.1) for Job "test_scf" (34843316) on daint

Job information (1/3)
2021-11-08T15:01:05 2021-11-08T15:01:05 2021-11-08T15:01:13 2021-11-08T15:06:32   00:05:19   00:40:00

Job information (2/3)
    Username      Account    Partition   NNodes        Energy
      antonk      csstaff       normal        1     62.334 kJ

Job information (3/3) - GPU utilization data
   Node name       Usage      Max mem Execution time