     Program PWSCF v.6.8 starts on  6Nov2021 at 12:57:38

     K-points division:     npool     =       4

     Reading input from pw.in
     Message from routine read_cards :
     DEPRECATED: no units specified in CELL_PARAMETERS card

     Current dimensions of program PWSCF are:
     Max number of different atomic species (ntypx) = 10
     Max number of k-points (npk) =  40000
     Max angular momentum in pseudopotentials (lmaxx) =  4
     Message from routine cell_base_init:
     DEPRECATED: use true lattice parameter, not A to a.u. conversion factor
     Message from routine setup:
     using ibrav=0 with symmetry is DISCOURAGED, use correct ibrav instead

     Subspace diagonalization in iterative solution of the eigenvalue problem:
     a serial algorithm will be used

     Using Slab Decomposition

     bravais-lattice index     =            0
     lattice parameter (alat)  =       1.0000  a.u.
     unit-cell volume          =    8646.7719 (a.u.)^3
     number of atoms/cell      =           64
     number of atomic types    =            2
     number of electrons       =       266.00
     number of Kohn-Sham states=          800
     kinetic-energy cutoff     =      50.0000  Ry
     charge density cutoff     =     800.0000  Ry
     scf convergence threshold =      1.0E-11
     mixing beta               =       0.7000
     number of iterations used =            8  plain     mixing
     Exchange-correlation= SLA  PZ   NOGX NOGC
                           (   1   1   0   0   0   0   0)

     celldm(1)=   1.000000  celldm(2)=   0.000000  celldm(3)=   0.000000
     celldm(4)=   0.000000  celldm(5)=   0.000000  celldm(6)=   0.000000

     crystal axes: (cart. coord. in units of alat)
               a(1) = (  20.525071   0.000000   0.000000 )
               a(2) = (   0.000000  20.525071   0.000000 )
               a(3) = (   0.000000   0.000000  20.525071 )

     reciprocal axes: (cart. coord. in units 2 pi/alat)
               b(1) = (  0.048721  0.000000  0.000000 )
               b(2) = (  0.000000  0.048721  0.000000 )
               b(3) = (  0.000000  0.000000  0.048721 )

     PseudoPot. # 1 for Ge read from file:
     ./ge_lda_v1.4.uspp.F.UPF
     MD5 check sum: bf9d52b59cc8a669818bb2b52e0c2ba0
     Pseudo is Ultrasoft + core correction, Zval = 14.0
     Generated by new atomic code, or converted to UPF format
     Using radial grid of  873 points,  6 beta functions with:
                l(1) =   0
                l(2) =   0
                l(3) =   1
                l(4) =   1
                l(5) =   2
                l(6) =   2
     Q(r) pseudized with  8 coefficients,  rinner =    1.400   1.400   1.400
                                                       1.400   1.400

     PseudoPot. # 2 for Si read from file:
     ./si_lda_v1.uspp.F.UPF
     MD5 check sum: b5ade7b37ee992b02096e360e546dc2d
     Pseudo is Ultrasoft + core correction, Zval =  4.0
     Generated by new atomic code, or converted to UPF format
     Using radial grid of  899 points,  6 beta functions with:
                l(1) =   0
                l(2) =   0
                l(3) =   1
                l(4) =   1
                l(5) =   2
                l(6) =   2
     Q(r) pseudized with  8 coefficients,  rinner =    0.900   0.900   0.900
                                                       0.900   0.900

     atomic species   valence    mass     pseudopotential
        Ge            14.00    72.61000     Ge( 1.00)
        Si             4.00    28.08550     Si( 1.00)

     24 Sym. Ops. (no inversion) found

                                    s                        frac. trans.

      isym =  1     identity

 cryst.   s( 1) = (     1          0          0      )
                  (     0          1          0      )
                  (     0          0          1      )

 cart.    s( 1) = (  1.0000000  0.0000000  0.0000000 )
                  (  0.0000000  1.0000000  0.0000000 )
                  (  0.0000000  0.0000000  1.0000000 )

      isym =  2     180 deg rotation - cart. axis [0,0,1]

[...]

 cryst.   s( 9) = (     0          1          0      )
                  (     0          0          1      )
                  (     1          0          0      )

 cart.    s( 9) = (  0.0000000  0.0000000  1.0000000 )
                  (  1.0000000  0.0000000  0.0000000 )
                  (  0.0000000  1.0000000  0.0000000 )

[...]

 cryst.   s(10) = (     0         -1          0      )
                  (     0          0         -1      )
                  (     1          0          0      )

 cart.    s(10) = (  0.0000000  0.0000000  1.0000000 )
                  ( -1.0000000  0.0000000  0.0000000 )
                  (  0.0000000 -1.0000000  0.0000000 )

[...]

      isym = 12     120 deg rotation - cart. axis [-1,-1,1]

[...]

      isym = 13     inv. 180 deg rotation - cart. axis [1,1,0]

[...]

      isym = 24     inv.  90 deg rotation - cart. axis [1,0,0]

 cryst.   s(24) = (    -1          0          0      )
                  (     0          0         -1      )
                  (     0          1          0      )

 cart.    s(24) = ( -1.0000000  0.0000000  0.0000000 )
                  (  0.0000000  0.0000000  1.0000000 )
                  (  0.0000000 -1.0000000  0.0000000 )

   Cartesian axes

     site n.     atom                  positions (alat units)
         1           Ge  tau(   1) = (   0.0000000   0.0000000   0.0000000  )
         2           Si  tau(   2) = (   0.0000000   0.0000000  10.2625355  )
         3           Si  tau(   3) = (   0.0000000  10.2625355   0.0000000  )
         4           Si  tau(   4) = (   0.0000000  10.2625355  10.2625355  )
         5           Si  tau(   5) = (  10.2625355   0.0000000   0.0000000  )
         6           Si  tau(   6) = (  10.2625355   0.0000000  10.2625355  )
         7           Si  tau(   7) = (  10.2625355  10.2625355   0.0000000  )
         8           Si  tau(   8) = (  10.2625355  10.2625355  10.2625355  )
         9           Si  tau(   9) = (   0.0000000   5.1312678   5.1312678  )
        10           Si  tau(  10) = (   0.0000000   5.1312678  15.3938033  )
        11           Si  tau(  11) = (   0.0000000  15.3938033   5.1312678  )
        12           Si  tau(  12) = (   0.0000000  15.3938033  15.3938033  )
        13           Si  tau(  13) = (  10.2625355   5.1312678   5.1312678  )
        14           Si  tau(  14) = (  10.2625355   5.1312678  15.3938033  )
        15           Si  tau(  15) = (  10.2625355  15.3938033   5.1312678  )
        16           Si  tau(  16) = (  10.2625355  15.3938033  15.3938033  )
        17           Si  tau(  17) = (   5.1312678   0.0000000   5.1312678  )
        18           Si  tau(  18) = (   5.1312678   0.0000000  15.3938033  )
        19           Si  tau(  19) = (   5.1312678  10.2625355   5.1312678  )
        20           Si  tau(  20) = (   5.1312678  10.2625355  15.3938033  )
        21           Si  tau(  21) = (  15.3938033   0.0000000   5.1312678  )
        22           Si  tau(  22) = (  15.3938033   0.0000000  15.3938033  )
        23           Si  tau(  23) = (  15.3938033  10.2625355   5.1312678  )
        24           Si  tau(  24) = (  15.3938033  10.2625355  15.3938033  )
        25           Si  tau(  25) = (   5.1312678   5.1312678   0.0000000  )
        26           Si  tau(  26) = (   5.1312678   5.1312678  10.2625355  )
        27           Si  tau(  27) = (   5.1312678  15.3938033   0.0000000  )
        28           Si  tau(  28) = (   5.1312678  15.3938033  10.2625355  )
        29           Si  tau(  29) = (  15.3938033   5.1312678   0.0000000  )
        30           Si  tau(  30) = (  15.3938033   5.1312678  10.2625355  )
        31           Si  tau(  31) = (  15.3938033  15.3938033   0.0000000  )
        32           Si  tau(  32) = (  15.3938033  15.3938033  10.2625355  )
        33           Si  tau(  33) = (   7.6969016   7.6969016   2.5656339  )
        34           Si  tau(  34) = (   7.6969016   7.6969016  12.8281694  )
        35           Si  tau(  35) = (   7.6969016  17.9594371   2.5656339  )
        36           Si  tau(  36) = (   7.6969016  17.9594371  12.8281694  )
        37           Si  tau(  37) = (  17.9594371   7.6969016   2.5656339  )
        38           Si  tau(  38) = (  17.9594371   7.6969016  12.8281694  )
        39           Si  tau(  39) = (  17.9594371  17.9594371   2.5656339  )
        40           Si  tau(  40) = (  17.9594371  17.9594371  12.8281694  )
        41           Si  tau(  41) = (   7.6969016   2.5656339   7.6969016  )
        42           Si  tau(  42) = (   7.6969016   2.5656339  17.9594371  )
        43           Si  tau(  43) = (   7.6969016  12.8281694   7.6969016  )
        44           Si  tau(  44) = (   7.6969016  12.8281694  17.9594371  )
        45           Si  tau(  45) = (  17.9594371   2.5656339   7.6969016  )
        46           Si  tau(  46) = (  17.9594371   2.5656339  17.9594371  )
        47           Si  tau(  47) = (  17.9594371  12.8281694   7.6969016  )
        48           Si  tau(  48) = (  17.9594371  12.8281694  17.9594371  )
        49           Si  tau(  49) = (   2.5656339   7.6969016   7.6969016  )
        50           Si  tau(  50) = (   2.5656339   7.6969016  17.9594371  )
        51           Si  tau(  51) = (   2.5656339  17.9594371   7.6969016  )
        52           Si  tau(  52) = (   2.5656339  17.9594371  17.9594371  )
        53           Si  tau(  53) = (  12.8281694   7.6969016   7.6969016  )
        54           Si  tau(  54) = (  12.8281694   7.6969016  17.9594371  )
        55           Si  tau(  55) = (  12.8281694  17.9594371   7.6969016  )
        56           Si  tau(  56) = (  12.8281694  17.9594371  17.9594371  )
        57           Si  tau(  57) = (   2.5656339   2.5656339   2.5656339  )
        58           Si  tau(  58) = (   2.5656339   2.5656339  12.8281694  )
        59           Si  tau(  59) = (   2.5656339  12.8281694   2.5656339  )
        60           Si  tau(  60) = (   2.5656339  12.8281694  12.8281694  )
        61           Si  tau(  61) = (  12.8281694   2.5656339   2.5656339  )
        62           Si  tau(  62) = (  12.8281694   2.5656339  12.8281694  )
        63           Si  tau(  63) = (  12.8281694  12.8281694   2.5656339  )
        64           Si  tau(  64) = (  12.8281694  12.8281694  12.8281694  )

   Crystallographic axes

     site n.     atom                  positions (cryst. coord.)
         1           Ge  tau(   1) = (  0.0000000  0.0000000  0.0000000  )
         2           Si  tau(   2) = (  0.0000000  0.0000000  0.5000000  )
         3           Si  tau(   3) = (  0.0000000  0.5000000  0.0000000  )
         4           Si  tau(   4) = (  0.0000000  0.5000000  0.5000000  )
         5           Si  tau(   5) = (  0.5000000  0.0000000  0.0000000  )
         6           Si  tau(   6) = (  0.5000000  0.0000000  0.5000000  )
         7           Si  tau(   7) = (  0.5000000  0.5000000  0.0000000  )
         8           Si  tau(   8) = (  0.5000000  0.5000000  0.5000000  )
         9           Si  tau(   9) = (  0.0000000  0.2500000  0.2500000  )
        10           Si  tau(  10) = (  0.0000000  0.2500000  0.7500000  )
[...]
├ sirius::Force::calc_forces_us                                       1     934.98 ms       1.01     100.00     934.98 ms     934.98 ms     934.98 ms
├ init_us_1                                                           1     809.31 ms       0.87     100.00     809.31 ms     809.31 ms     809.31 ms
├ sirius::Density::add_k_point_contribution_rg                       15     790.41 ms       0.85     100.00      52.81 ms      52.10 ms      53.20 ms
├ sirius::Smooth_periodic_function::fft_transform                   119     662.87 ms       0.71     100.00       6.77 ms       1.42 ms      10.39 ms
├ sirius_api::sirius_get_wave_functions                               4     627.57 ms       0.68     100.00     288.12 us     264.13 us     626.73 ms
├ sirius::Potential::xc                                              16     615.71 ms       0.66     100.00      38.39 ms      37.78 ms      39.09 ms
├ potinit                                                             1     606.23 ms       0.65     100.00     606.23 ms     606.23 ms     606.23 ms
├ sirius::Potential::xc_rg_nonmagnetic                               16     567.02 ms       0.61     100.00      35.35 ms      34.75 ms      36.06 ms
├ sirius::Beta_projectors_base::generate                            100     503.38 ms       0.54     100.00       4.36 ms       4.23 ms       6.82 ms
├ sirius::Density::get_magnetisation                                 16     503.23 ms       0.54     100.00      31.33 ms      31.26 ms      31.96 ms
├ sirius::Density::compute_atomic_mag_mom                            16     503.09 ms       0.54     100.00      31.32 ms      31.25 ms      31.95 ms
├ qe|setup                                                            1     450.11 ms       0.48     100.00     450.11 ms     450.11 ms     450.11 ms
├ sirius::Density::mix                                               15     435.45 ms       0.47     100.00      33.18 ms      14.08 ms      33.68 ms
├ sirius::Stress|ewald                                                1     430.85 ms       0.46     100.00     430.85 ms     430.85 ms     430.85 ms
├ sirius::Stress|nonloc                                               1     408.51 ms       0.44     100.00     408.51 ms     408.51 ms     408.51 ms
├ sirius::Non_local_functor::add_k_point                              2     403.94 ms       0.43     100.00     201.97 ms     112.09 ms     291.85 ms
├ sddk::Gvec::init                                                   10     390.20 ms       0.42     100.00       3.03 ms       2.36 ms     331.35 ms
├ v_of_rho                                                            1     357.49 ms       0.38     100.00     357.49 ms     357.49 ms     357.49 ms
├ sirius::Density::symmetrize_density_matrix                         15     356.09 ms       0.38     100.00      23.60 ms      23.55 ms      25.72 ms
├ sirius::Density::add_k_point_contribution_dm                       15     346.37 ms       0.37     100.00      23.04 ms      22.91 ms      23.53 ms
├ sirius::Potential::poisson                                         16     331.41 ms       0.36     100.00      20.43 ms      19.84 ms      22.62 ms
├ sddk::Gvec::find_gvec_shells                                        2     307.69 ms       0.33     100.00     153.85 ms      29.17 ms     278.52 ms
├ qe|setlocal                                                         1     270.95 ms       0.29     100.00     270.95 ms     270.95 ms     270.95 ms
├ sirius::Periodic_function::integrate                               17     227.17 ms       0.24     100.00      13.21 ms      12.89 ms      14.65 ms
├ sddk::orthogonalize|tmtrx                                          69     211.35 ms       0.23     100.00     541.15 us      13.85 us      32.35 ms
├ sddk::Gvec_shells::remap_forward                                   31     211.21 ms       0.23     100.00       6.45 ms       5.98 ms       8.12 ms
├ v_xc                                                                1     210.30 ms       0.23     100.00     210.30 ms     210.30 ms     210.30 ms
├ sddk::Gvec_shells                                                   1     210.28 ms       0.23     100.00     210.28 ms     210.28 ms     210.28 ms
├ sirius::Stress|us|prepare                                          18     207.60 ms       0.22     100.00      11.52 ms     515.91 us      22.86 ms
├ fft                                                                 6     194.13 ms       0.21     100.00      15.90 ms      15.58 ms     114.78 ms
├ sirius::Force::calc_forces_nonloc                                   1     190.15 ms       0.20     100.00     190.15 ms     190.15 ms     190.15 ms
├ sddk::Gvec_shells::remap_backward                                  31     166.92 ms       0.18     100.00       5.31 ms       5.25 ms       6.71 ms
├ sirius::normalized_preconditioned_residuals                        58     155.11 ms       0.17     100.00     817.30 us     217.31 us      11.01 ms
├ sirius::finalize                                                    1     149.79 ms       0.16     100.00     149.79 ms     149.79 ms     149.79 ms
├ v_h                                                                 1     147.16 ms       0.16     100.00     147.16 ms     147.16 ms     147.16 ms
├ sirius::Augmentation_operator_gvec_deriv                            1     142.55 ms       0.15     100.00     142.55 ms     142.55 ms     142.55 ms
├ init_vloc                                                           1     142.10 ms       0.15     100.00     142.10 ms     142.10 ms     142.10 ms
├ Eigensolver_cuda|zhegvdx                                            2     139.25 ms       0.15     100.00      69.62 ms      68.46 ms      70.78 ms
├ sirius::Force::calc_forces_ewald                                    1     137.07 ms       0.15     100.00     137.07 ms     137.07 ms     137.07 ms
├ sirius::Density::mixer_output                                      15     117.47 ms       0.13     100.00       7.72 ms       7.65 ms       8.73 ms
├ sirius::Hamiltonian0                                               17     103.44 ms       0.11     100.00       5.71 ms       5.66 ms      10.77 ms
├ qe|set_vrs                                                          1      94.90 ms       0.10     100.00      94.90 ms      94.90 ms      94.90 ms
├ sirius::Radial_integrals|atomic_wfs                                 4      84.31 ms       0.09     100.00      18.70 ms       1.41 us      46.91 ms
├ sirius::Potential                                                   1      74.08 ms       0.08     100.00      74.08 ms      74.08 ms      74.08 ms
├ sirius::Density::initial_density                                    1      74.04 ms       0.08     100.00      74.04 ms      74.04 ms      74.04 ms
├ interpolate                                                         1      68.52 ms       0.07     100.00      68.52 ms      68.52 ms      68.52 ms
├ sirius::Local_operator                                             17      67.28 ms       0.07     100.00       3.59 ms       3.57 ms       8.42 ms
├ sirius::Force::calc_forces_core                                     1      64.82 ms       0.07     100.00      64.82 ms      64.82 ms      64.82 ms
├ sirius::Hamiltonian_k::get_h_o_diag                                15      64.12 ms       0.07     100.00       4.18 ms       4.16 ms       5.40 ms
├ sirius::Density                                                     2      63.04 ms       0.07     100.00      31.52 ms      29.44 ms      33.60 ms
├ sirius::Force::calc_forces_scf_corr                                 1      60.45 ms       0.07     100.00      60.45 ms      60.45 ms      60.45 ms
├ sirius::Band::initialize_subspace|kp|wf                             2      55.14 ms       0.06     100.00      27.57 ms      27.54 ms      27.60 ms
├ sirius::Force::calc_forces_vloc                                     1      54.87 ms       0.06     100.00      54.87 ms      54.87 ms      54.87 ms
├ sirius::Stress|us|phase_fac                                         2      52.68 ms       0.06     100.00      26.34 ms     778.38 us      51.90 ms
├ sirius::Density::update                                             2      41.32 ms       0.04     100.00      20.66 ms      17.92 ms      23.40 ms
├ sirius::Density::generate_pseudo_core_charge_density                2      40.26 ms       0.04     100.00      20.13 ms      17.39 ms      22.86 ms
├ sirius::K_point::generate_atomic_wave_functions                     2      38.81 ms       0.04     100.00      19.41 ms      19.10 ms      19.72 ms
├ sirius::Beta_projectors_strain_deriv::generate_pw_coefs_t           1      38.74 ms       0.04     100.00      38.74 ms      38.74 ms      38.74 ms
├ sirius::Stress|vloc                                                 1      35.89 ms       0.04     100.00      35.89 ms      35.89 ms      35.89 ms
├ sirius::Beta_projectors_base::prepare                              36      35.81 ms       0.04     100.00       7.37 us       3.65 us      26.78 ms
├ sirius::Potential::update                                           1      35.53 ms       0.04     100.00      35.53 ms      35.53 ms      35.53 ms
├ sirius::Potential::generate_local_potential                         1      34.47 ms       0.04     100.00      34.47 ms      34.47 ms      34.47 ms
├ sirius::K_point_set::find_band_occupancies                         15      32.20 ms       0.03     100.00       1.80 ms       1.63 ms       3.30 ms
├ sirius::K_point_set::initialize                                     1      22.36 ms       0.02     100.00      22.36 ms      22.36 ms      22.36 ms
├ sirius::K_point::initialize                                         2      22.04 ms       0.02     100.00      11.02 ms       9.76 ms      12.28 ms
├ sirius::Q_operator::initialize                                     17      21.79 ms       0.02     100.00       1.28 ms       1.26 ms       1.31 ms
├ sirius::Stress|har                                                  1      20.08 ms       0.02     100.00      20.08 ms      20.08 ms      20.08 ms
├ sirius::Periodic_function::add                                     32      18.77 ms       0.02     100.00     591.09 us     524.79 us     634.53 us
├ sirius::Density::mixer_input                                       15      15.88 ms       0.02     100.00       1.06 ms       1.03 ms       1.08 ms
├ sirius::Augmentation_operator_gvec_deriv::prepare                   2      15.02 ms       0.02     100.00       7.51 ms       6.54 ms       8.48 ms
├ sirius::Unit_cell::update                                           2      13.59 ms       0.01     100.00       6.80 ms       6.60 ms       6.99 ms
├ sirius::K_point::update                                             2      13.32 ms       0.01     100.00       6.66 ms       5.56 ms       7.76 ms
├ sirius::Simulation_context::make_periodic_function                  7      12.96 ms       0.01     100.00       1.10 ms     791.28 us       3.20 ms
├ sirius::Unit_cell::get_symmetry                                     2      11.31 ms       0.01     100.00       5.66 ms       5.57 ms       5.74 ms
├ sirius::Crystal_symmetry                                            2      11.21 ms       0.01     100.00       5.60 ms       5.51 ms       5.70 ms
├ sirius::Beta_projectors                                             2      11.20 ms       0.01     100.00       5.60 ms       4.52 ms       6.68 ms
├ sirius::D_operator::initialize                                     17      11.14 ms       0.01     100.00     655.29 us     648.60 us     665.73 us
├ sirius::K_point::generate_gkvec                                     2       7.91 ms       0.01     100.00       3.96 ms       3.81 ms       4.11 ms
├ sirius::Unit_cell::initialize                                       1       7.37 ms       0.01     100.00       7.37 ms       7.37 ms       7.37 ms
├ sirius::Beta_projectors::generate_pw_coefs_t                        2       6.98 ms       0.01     100.00       3.49 ms       3.12 ms       3.86 ms
├ sirius::find_sym_atom                                              96       5.68 ms       0.01     100.00      58.57 us      57.75 us      79.97 us
├ sirius::K_point_set::sync_band                                     30       5.58 ms       0.01     100.00     112.63 us      33.34 us       1.65 ms
├ sirius::Crystal_symmetry|spg                                        2       4.96 ms       0.01     100.00       2.48 ms       2.43 ms       2.53 ms
├ sirius::Stress|kin                                                  1       4.78 ms       0.01     100.00       4.78 ms       4.78 ms       4.78 ms
├ sirius::Simulation_context::init_atoms_to_grid_idx                  1       3.26 ms       0.00     100.00       3.26 ms       3.26 ms       3.26 ms
├ sirius::Hamiltonian_k                                              17       2.43 ms       0.00     100.00     140.20 us     124.29 us     183.88 us
├ sirius::Local_operator::prepare_k                                  17       2.23 ms       0.00     100.00     129.04 us     114.32 us     166.02 us
├ sirius::Unit_cell::find_nearest_neighbours                          2       2.22 ms       0.00     100.00       1.11 ms       1.01 ms       1.21 ms
├ sirius::Non_local_operator                                         34       1.98 ms       0.00     100.00      54.43 us      29.80 us      89.38 us
├ ffts                                                                1     927.08 us       0.00     100.00     927.08 us     927.08 us     927.08 us
├ wfcinit                                                             1     731.88 us       0.00     100.00     731.88 us     731.88 us     731.88 us
├ sirius::Force::symmetrize                                           6     346.07 us       0.00     100.00      49.51 us      41.57 us      94.61 us
├ sirius::Atom_type::init                                             2     267.01 us       0.00     100.00     133.50 us      98.39 us     168.62 us
├ sddk::matrix_storage::remap_forward                                86     228.19 us       0.00     100.00       2.40 us       1.14 us      14.74 us
├ sirius::Augmentation_operator_gvec_deriv::generate_pw_coeffs        6     223.31 us       0.00     100.00      33.48 us      25.84 us      67.51 us
├ sirius::Simulation_context::init_comm                               1     107.58 us       0.00     100.00     107.58 us     107.58 us     107.58 us
├ sirius::Crystal_symmetry|mag                                        2      56.36 us       0.00     100.00      28.18 us      23.22 us      33.14 us
├ sddk::wf_inner|scale_back                                         196      54.97 us       0.00     100.00     231.00 ns     120.00 ns       6.18 us
├ sirius::K_point::K_point                                            8      43.94 us       0.00     100.00       5.06 us       4.45 us       8.29 us
├ sddk::wf_inner|scale                                              196      40.09 us       0.00     100.00      80.50 ns      46.00 ns      10.85 us
├ sddk::matrix_storage::remap_backward                               71      37.74 us       0.00     100.00     540.00 ns     194.00 ns       1.66 us
├ sirius::Beta_projectors_base::dismiss                              36      17.92 us       0.00     100.00     416.50 ns     304.00 ns       1.38 us
├ sirius::Potential::generate_PAW_effective_potential                16       2.74 us       0.00     100.00     178.50 ns     108.00 ns     209.00 ns
├ qe|punch                                                            1       1.11 us       0.00     100.00       1.11 us       1.11 us       1.11 us
├ qe|paw_potential                                                    1     939.00 ns       0.00     100.00     939.00 ns     939.00 ns     939.00 ns
└ qe|paw_becsum                                                       1     890.00 ns       0.00     100.00     890.00 ns     890.00 ns     890.00 ns

Note: The following floating-point exceptions are signalling: IEEE_UNDERFLOW_FLAG IEEE_DENORMAL
Note: The following floating-point exceptions are signalling: IEEE_UNDERFLOW_FLAG IEEE_DENORMAL
Note: The following floating-point exceptions are signalling: IEEE_UNDERFLOW_FLAG IEEE_DENORMAL
Note: The following floating-point exceptions are signalling: IEEE_UNDERFLOW_FLAG IEEE_DENORMAL

Batch Job Summary Report (version 21.01.1) for Job "test_scf" (34792658) on daint

Job information (1/3)
2021-11-06T12:57:25 2021-11-06T12:57:25 2021-11-06T12:57:26 2021-11-06T12:59:10   00:01:44   00:40:00

Job information (2/3)
    Username      Account    Partition   NNodes        Energy
      antonk      csstaff       normal        4     68.793 kJ

Job information (3/3) - GPU utilization data
   Node name       Usage      Max mem Execution time