     Program PWSCF v.6.8 starts on  8Nov2021 at 15:11:19

     K-points division:     npool     =       4

     Reading input from pw.in
     Message from routine read_cards :
     DEPRECATED: no units specified in CELL_PARAMETERS card

     Current dimensions of program PWSCF are:
     Max number of different atomic species (ntypx) = 10
     Max number of k-points (npk) =  40000
     Max angular momentum in pseudopotentials (lmaxx) =  4
     Message from routine cell_base_init:
     DEPRECATED: use true lattice parameter, not A to a.u. conversion factor
     Message from routine setup:
     using ibrav=0 with symmetry is DISCOURAGED, use correct ibrav instead

     Subspace diagonalization in iterative solution of the eigenvalue problem:
     a serial algorithm will be used

     Using Slab Decomposition

     bravais-lattice index     =            0
     lattice parameter (alat)  =       1.0000  a.u.
     unit-cell volume          =    8646.7719 (a.u.)^3
     number of atoms/cell      =           64
     number of atomic types    =            2
     number of electrons       =       266.00
     number of Kohn-Sham states=          800
     kinetic-energy cutoff     =      50.0000  Ry
     charge density cutoff     =     800.0000  Ry
     scf convergence threshold =      1.0E-11
     mixing beta               =       0.7000
     number of iterations used =            8  plain     mixing
     Exchange-correlation= SLA  PZ   NOGX NOGC
                           (   1   1   0   0   0   0   0)

     celldm(1)=   1.000000  celldm(2)=   0.000000  celldm(3)=   0.000000
     celldm(4)=   0.000000  celldm(5)=   0.000000  celldm(6)=   0.000000

     crystal axes: (cart. coord. in units of alat)
               a(1) = (  20.525071   0.000000   0.000000 )
               a(2) = (   0.000000  20.525071   0.000000 )
               a(3) = (   0.000000   0.000000  20.525071 )

     reciprocal axes: (cart. coord. in units 2 pi/alat)
               b(1) = (  0.048721  0.000000  0.000000 )
               b(2) = (  0.000000  0.048721  0.000000 )
               b(3) = (  0.000000  0.000000  0.048721 )

     PseudoPot. # 1 for Ge read from file:
     ./ge_lda_v1.4.uspp.F.UPF
     MD5 check sum: bf9d52b59cc8a669818bb2b52e0c2ba0
     Pseudo is Ultrasoft + core correction, Zval = 14.0
     Generated by new atomic code, or converted to UPF format
     Using radial grid of  873 points,  6 beta functions with:
                l(1) =   0
                l(2) =   0
                l(3) =   1
                l(4) =   1
                l(5) =   2
                l(6) =   2
     Q(r) pseudized with  8 coefficients,  rinner =    1.400   1.400   1.400
                                                       1.400   1.400

     PseudoPot. # 2 for Si read from file:
     ./si_lda_v1.uspp.F.UPF
     MD5 check sum: b5ade7b37ee992b02096e360e546dc2d
     Pseudo is Ultrasoft + core correction, Zval =  4.0
     Generated by new atomic code, or converted to UPF format
     Using radial grid of  899 points,  6 beta functions with:
                l(1) =   0
                l(2) =   0
                l(3) =   1
                l(4) =   1
                l(5) =   2
                l(6) =   2
     Q(r) pseudized with  8 coefficients,  rinner =    0.900   0.900   0.900
                                                       0.900   0.900

     atomic species   valence    mass     pseudopotential
        Ge            14.00    72.61000     Ge( 1.00)
        Si             4.00    28.08550     Si( 1.00)

     24 Sym. Ops. (no inversion) found

                                    s                        frac. trans.

      isym =  1     identity

 cryst.   s( 1) = (     1          0          0      )
                  (     0          1          0      )
                  (     0          0          1      )

 cart.    s( 1) = (  1.0000000  0.0000000  0.0000000 )
                  (  0.0000000  1.0000000  0.0000000 )
                  (  0.0000000  0.0000000  1.0000000 )

      isym =  2     180 deg rotation - cart. axis [0,0,1]

[...]

 cryst.   s( 9) = (     0          1          0      )
                  (     0          0          1      )
                  (     1          0          0      )

 cart.    s( 9) = (  0.0000000  0.0000000  1.0000000 )
                  (  1.0000000  0.0000000  0.0000000 )
                  (  0.0000000  1.0000000  0.0000000 )

[...]

 cryst.   s(10) = (     0         -1          0      )
                  (     0          0         -1      )
                  (     1          0          0      )

 cart.    s(10) = (  0.0000000  0.0000000  1.0000000 )
                  ( -1.0000000  0.0000000  0.0000000 )
                  (  0.0000000 -1.0000000  0.0000000 )

[...]

      isym = 12     120 deg rotation - cart. axis [-1,-1,1]

[...]

      isym = 13     inv. 180 deg rotation - cart. axis [1,1,0]

[...]

      isym = 24     inv.  90 deg rotation - cart. axis [1,0,0]

 cryst.   s(24) = (    -1          0          0      )
                  (     0          0         -1      )
                  (     0          1          0      )

 cart.    s(24) = ( -1.0000000  0.0000000  0.0000000 )
                  (  0.0000000  0.0000000  1.0000000 )
                  (  0.0000000 -1.0000000  0.0000000 )

   Cartesian axes

     site n.     atom                  positions (alat units)
         1           Ge  tau(   1) = (   0.0000000   0.0000000   0.0000000  )
         2           Si  tau(   2) = (   0.0000000   0.0000000  10.2625355  )
         3           Si  tau(   3) = (   0.0000000  10.2625355   0.0000000  )
         4           Si  tau(   4) = (   0.0000000  10.2625355  10.2625355  )
         5           Si  tau(   5) = (  10.2625355   0.0000000   0.0000000  )
         6           Si  tau(   6) = (  10.2625355   0.0000000  10.2625355  )
         7           Si  tau(   7) = (  10.2625355  10.2625355   0.0000000  )
         8           Si  tau(   8) = (  10.2625355  10.2625355  10.2625355  )
         9           Si  tau(   9) = (   0.0000000   5.1312678   5.1312678  )
        10           Si  tau(  10) = (   0.0000000   5.1312678  15.3938033  )
        11           Si  tau(  11) = (   0.0000000  15.3938033   5.1312678  )
        12           Si  tau(  12) = (   0.0000000  15.3938033  15.3938033  )
        13           Si  tau(  13) = (  10.2625355   5.1312678   5.1312678  )
        14           Si  tau(  14) = (  10.2625355   5.1312678  15.3938033  )
        15           Si  tau(  15) = (  10.2625355  15.3938033   5.1312678  )
        16           Si  tau(  16) = (  10.2625355  15.3938033  15.3938033  )
        17           Si  tau(  17) = (   5.1312678   0.0000000   5.1312678  )
        18           Si  tau(  18) = (   5.1312678   0.0000000  15.3938033  )
        19           Si  tau(  19) = (   5.1312678  10.2625355   5.1312678  )
        20           Si  tau(  20) = (   5.1312678  10.2625355  15.3938033  )
        21           Si  tau(  21) = (  15.3938033   0.0000000   5.1312678  )
        22           Si  tau(  22) = (  15.3938033   0.0000000  15.3938033  )
        23           Si  tau(  23) = (  15.3938033  10.2625355   5.1312678  )
        24           Si  tau(  24) = (  15.3938033  10.2625355  15.3938033  )
        25           Si  tau(  25) = (   5.1312678   5.1312678   0.0000000  )
        26           Si  tau(  26) = (   5.1312678   5.1312678  10.2625355  )
        27           Si  tau(  27) = (   5.1312678  15.3938033   0.0000000  )
        28           Si  tau(  28) = (   5.1312678  15.3938033  10.2625355  )
        29           Si  tau(  29) = (  15.3938033   5.1312678   0.0000000  )
        30           Si  tau(  30) = (  15.3938033   5.1312678  10.2625355  )
        31           Si  tau(  31) = (  15.3938033  15.3938033   0.0000000  )
        32           Si  tau(  32) = (  15.3938033  15.3938033  10.2625355  )
        33           Si  tau(  33) = (   7.6969016   7.6969016   2.5656339  )
        34           Si  tau(  34) = (   7.6969016   7.6969016  12.8281694  )
        35           Si  tau(  35) = (   7.6969016  17.9594371   2.5656339  )
        36           Si  tau(  36) = (   7.6969016  17.9594371  12.8281694  )
        37           Si  tau(  37) = (  17.9594371   7.6969016   2.5656339  )
        38           Si  tau(  38) = (  17.9594371   7.6969016  12.8281694  )
        39           Si  tau(  39) = (  17.9594371  17.9594371   2.5656339  )
        40           Si  tau(  40) = (  17.9594371  17.9594371  12.8281694  )
        41           Si  tau(  41) = (   7.6969016   2.5656339   7.6969016  )
        42           Si  tau(  42) = (   7.6969016   2.5656339  17.9594371  )
        43           Si  tau(  43) = (   7.6969016  12.8281694   7.6969016  )
        44           Si  tau(  44) = (   7.6969016  12.8281694  17.9594371  )
        45           Si  tau(  45) = (  17.9594371   2.5656339   7.6969016  )
        46           Si  tau(  46) = (  17.9594371   2.5656339  17.9594371  )
        47           Si  tau(  47) = (  17.9594371  12.8281694   7.6969016  )
        48           Si  tau(  48) = (  17.9594371  12.8281694  17.9594371  )
        49           Si  tau(  49) = (   2.5656339   7.6969016   7.6969016  )
        50           Si  tau(  50) = (   2.5656339   7.6969016  17.9594371  )
        51           Si  tau(  51) = (   2.5656339  17.9594371   7.6969016  )
        52           Si  tau(  52) = (   2.5656339  17.9594371  17.9594371  )
        53           Si  tau(  53) = (  12.8281694   7.6969016   7.6969016  )
        54           Si  tau(  54) = (  12.8281694   7.6969016  17.9594371  )
        55           Si  tau(  55) = (  12.8281694  17.9594371   7.6969016  )
        56           Si  tau(  56) = (  12.8281694  17.9594371  17.9594371  )
        57           Si  tau(  57) = (   2.5656339   2.5656339   2.5656339  )
        58           Si  tau(  58) = (   2.5656339   2.5656339  12.8281694  )
        59           Si  tau(  59) = (   2.5656339  12.8281694   2.5656339  )
        60           Si  tau(  60) = (   2.5656339  12.8281694  12.8281694  )
        61           Si  tau(  61) = (  12.8281694   2.5656339   2.5656339  )
        62           Si  tau(  62) = (  12.8281694   2.5656339  12.8281694  )
        63           Si  tau(  63) = (  12.8281694  12.8281694   2.5656339  )
        64           Si  tau(  64) = (  12.8281694  12.8281694  12.8281694  )

   Crystallographic axes

     site n.     atom                  positions (cryst. coord.)
         1           Ge  tau(   1) = (  0.0000000  0.0000000  0.0000000  )
         2           Si  tau(   2) = (  0.0000000  0.0000000  0.5000000  )
         3           Si  tau(   3) = (  0.0000000  0.5000000  0.0000000  )
         4           Si  tau(   4) = (  0.0000000  0.5000000  0.5000000  )
         5           Si  tau(   5) = (  0.5000000  0.0000000  0.0000000  )
         6           Si  tau(   6) = (  0.5000000  0.0000000  0.5000000  )
         7           Si  tau(   7) = (  0.5000000  0.5000000  0.0000000  )
         8           Si  tau(   8) = (  0.5000000  0.5000000  0.5000000  )
         9           Si  tau(   9) = (  0.0000000  0.2500000  0.2500000  )
        10           Si  tau(  10) = (  0.0000000  0.2500000  0.7500000  )
[...]
├ sirius::Force::calc_forces_us                                       1     928.34 ms       0.97     100.00     928.34 ms     928.34 ms     928.34 ms
├ Eigensolver_magma|zhegvdx                                           2     923.14 ms       0.97     100.00     461.57 ms     106.24 ms     816.90 ms
├ init_us_1                                                           1     812.00 ms       0.85     100.00     812.00 ms     812.00 ms     812.00 ms
├ sirius::Density::add_k_point_contribution_rg                       15     791.12 ms       0.83     100.00      52.90 ms      52.04 ms      53.43 ms
├ sirius::Smooth_periodic_function::fft_transform                   119     655.51 ms       0.69     100.00       6.62 ms       1.41 ms      11.41 ms
├ sirius_api::sirius_get_wave_functions                               4     618.49 ms       0.65     100.00     295.31 us     265.06 us     617.63 ms
├ sirius::Potential::xc                                              16     614.19 ms       0.64     100.00      38.43 ms      37.67 ms      38.87 ms
├ potinit                                                             1     605.01 ms       0.63     100.00     605.01 ms     605.01 ms     605.01 ms
├ sirius::Potential::xc_rg_nonmagnetic                               16     567.13 ms       0.59     100.00      35.48 ms      34.73 ms      35.93 ms
├ qe|setup                                                            1     560.48 ms       0.59     100.00     560.48 ms     560.48 ms     560.48 ms
├ sirius::Density::get_magnetisation                                 16     513.48 ms       0.54     100.00      32.10 ms      31.82 ms      32.31 ms
├ sirius::Density::compute_atomic_mag_mom                            16     513.35 ms       0.54     100.00      32.09 ms      31.81 ms      32.30 ms
├ sirius::Beta_projectors_base::generate                            100     502.82 ms       0.53     100.00       4.35 ms       4.24 ms       6.81 ms
├ sirius::Stress|ewald                                                1     474.37 ms       0.50     100.00     474.37 ms     474.37 ms     474.37 ms
├ sirius::Density::mix                                               15     437.54 ms       0.46     100.00      33.06 ms      13.99 ms      33.62 ms
├ sirius::Stress|nonloc                                               1     407.00 ms       0.43     100.00     407.00 ms     407.00 ms     407.00 ms
├ sirius::Non_local_functor::add_k_point                              2     403.85 ms       0.42     100.00     201.93 ms     112.54 ms     291.31 ms
├ sddk::Gvec::init                                                   10     391.09 ms       0.41     100.00       3.05 ms       2.37 ms     331.83 ms
├ v_of_rho                                                            1     358.42 ms       0.38     100.00     358.42 ms     358.42 ms     358.42 ms
├ sirius::Density::symmetrize_density_matrix                         15     356.22 ms       0.37     100.00      23.81 ms      23.58 ms      23.93 ms
├ sirius::Density::add_k_point_contribution_dm                       15     353.37 ms       0.37     100.00      23.56 ms      23.37 ms      23.81 ms
├ sirius::Potential::poisson                                         16     326.06 ms       0.34     100.00      20.35 ms      19.78 ms      21.79 ms
├ sddk::Gvec::find_gvec_shells                                        2     308.83 ms       0.32     100.00     154.42 ms      29.71 ms     279.12 ms
├ qe|setlocal                                                         1     239.04 ms       0.25     100.00     239.04 ms     239.04 ms     239.04 ms
├ sirius::Periodic_function::integrate                               17     227.69 ms       0.24     100.00      13.20 ms      12.79 ms      14.80 ms
├ sddk::Gvec_shells::remap_forward                                   31     213.85 ms       0.22     100.00       6.42 ms       5.91 ms       8.46 ms
├ v_xc                                                                1     210.93 ms       0.22     100.00     210.93 ms     210.93 ms     210.93 ms
├ sddk::Gvec_shells                                                   1     210.80 ms       0.22     100.00     210.80 ms     210.80 ms     210.80 ms
├ sirius::Stress|us|prepare                                          18     207.91 ms       0.22     100.00      11.56 ms     517.64 us      22.72 ms
├ sirius::finalize                                                    1     199.64 ms       0.21     100.00     199.64 ms     199.64 ms     199.64 ms
├ sddk::orthogonalize|tmtrx                                          69     191.43 ms       0.20     100.00     538.59 us      13.89 us       8.41 ms
├ sirius::Force::calc_forces_nonloc                                   1     189.59 ms       0.20     100.00     189.59 ms     189.59 ms     189.59 ms
├ sddk::Gvec_shells::remap_backward                                  31     167.06 ms       0.17     100.00       5.38 ms       5.33 ms       5.55 ms
├ fft                                                                 6     160.89 ms       0.17     100.00      16.04 ms      15.63 ms      81.24 ms
├ sirius::normalized_preconditioned_residuals                        58     155.19 ms       0.16     100.00     814.98 us     223.27 us      11.01 ms
├ v_h                                                                 1     147.46 ms       0.15     100.00     147.46 ms     147.46 ms     147.46 ms
├ init_vloc                                                           1     142.30 ms       0.15     100.00     142.30 ms     142.30 ms     142.30 ms
├ sirius::Augmentation_operator_gvec_deriv                            1     142.21 ms       0.15     100.00     142.21 ms     142.21 ms     142.21 ms
├ sirius::Force::calc_forces_ewald                                    1     137.31 ms       0.14     100.00     137.31 ms     137.31 ms     137.31 ms
├ sirius::Density::mixer_output                                      15     118.20 ms       0.12     100.00       7.72 ms       7.64 ms       9.85 ms
├ sirius::Hamiltonian0                                               17     103.80 ms       0.11     100.00       5.73 ms       5.68 ms      10.79 ms
├ qe|set_vrs                                                          1      95.35 ms       0.10     100.00      95.35 ms      95.35 ms      95.35 ms
├ sirius::Radial_integrals|atomic_wfs                                 4      85.23 ms       0.09     100.00      18.75 ms       2.59 us      47.73 ms
├ sirius::Density::initial_density                                    1      75.87 ms       0.08     100.00      75.87 ms      75.87 ms      75.87 ms
├ interpolate                                                         1      68.83 ms       0.07     100.00      68.83 ms      68.83 ms      68.83 ms
├ sirius::Local_operator                                             17      66.72 ms       0.07     100.00       3.57 ms       3.53 ms       8.39 ms
├ sirius::Hamiltonian_k::get_h_o_diag                                15      64.66 ms       0.07     100.00       4.29 ms       4.22 ms       4.65 ms
├ sirius::Force::calc_forces_core                                     1      63.94 ms       0.07     100.00      63.94 ms      63.94 ms      63.94 ms
├ sirius::Density                                                     2      62.65 ms       0.07     100.00      31.33 ms      30.99 ms      31.66 ms
├ sirius::Potential                                                   1      58.28 ms       0.06     100.00      58.28 ms      58.28 ms      58.28 ms
├ sirius::Force::calc_forces_vloc                                     1      55.89 ms       0.06     100.00      55.89 ms      55.89 ms      55.89 ms
├ sirius::Band::initialize_subspace|kp|wf                             2      55.37 ms       0.06     100.00      27.69 ms      27.68 ms      27.69 ms
├ sirius::Force::calc_forces_scf_corr                                 1      54.42 ms       0.06     100.00      54.42 ms      54.42 ms      54.42 ms
├ sirius::Stress|us|phase_fac                                         2      50.89 ms       0.05     100.00      25.44 ms     781.62 us      50.11 ms
├ sirius::Density::update                                             2      41.10 ms       0.04     100.00      20.55 ms      19.53 ms      21.56 ms
├ sirius::Density::generate_pseudo_core_charge_density                2      40.04 ms       0.04     100.00      20.02 ms      19.00 ms      21.03 ms
├ sirius::Beta_projectors_strain_deriv::generate_pw_coefs_t           1      38.84 ms       0.04     100.00      38.84 ms      38.84 ms      38.84 ms
├ sirius::K_point::generate_atomic_wave_functions                     2      37.87 ms       0.04     100.00      18.94 ms      18.78 ms      19.09 ms
├ sirius::Stress|vloc                                                 1      35.56 ms       0.04     100.00      35.56 ms      35.56 ms      35.56 ms
├ sirius::Beta_projectors_base::prepare                              36      35.49 ms       0.04     100.00       7.42 us       3.35 us      26.55 ms
├ sirius::K_point_set::find_band_occupancies                         15      27.19 ms       0.03     100.00       1.81 ms       1.52 ms       2.34 ms
├ sirius::Q_operator::initialize                                     17      22.50 ms       0.02     100.00       1.31 ms       1.29 ms       1.57 ms
├ sirius::K_point_set::initialize                                     1      22.24 ms       0.02     100.00      22.24 ms      22.24 ms      22.24 ms
├ sirius::K_point::initialize                                         2      22.07 ms       0.02     100.00      11.03 ms       9.83 ms      12.24 ms
├ sirius::Potential::update                                           1      19.84 ms       0.02     100.00      19.84 ms      19.84 ms      19.84 ms
├ sirius::Stress|har                                                  1      19.65 ms       0.02     100.00      19.65 ms      19.65 ms      19.65 ms
├ sirius::Potential::generate_local_potential                         1      18.78 ms       0.02     100.00      18.78 ms      18.78 ms      18.78 ms
├ sirius::Periodic_function::add                                     32      18.68 ms       0.02     100.00     586.63 us     509.42 us     652.50 us
├ sirius::Density::mixer_input                                       15      15.71 ms       0.02     100.00       1.05 ms       1.01 ms       1.07 ms
├ sirius::Augmentation_operator_gvec_deriv::prepare                   2      14.94 ms       0.02     100.00       7.47 ms       6.53 ms       8.41 ms
├ sirius::Unit_cell::update                                           2      13.64 ms       0.01     100.00       6.82 ms       6.63 ms       7.01 ms
├ sirius::K_point::update                                             2      13.34 ms       0.01     100.00       6.67 ms       5.60 ms       7.73 ms
├ sirius::Simulation_context::make_periodic_function                  7      12.98 ms       0.01     100.00       1.12 ms     759.88 us       3.24 ms
├ sirius::D_operator::initialize                                     17      11.42 ms       0.01     100.00     670.63 us     660.80 us     691.26 us
├ sirius::Unit_cell::get_symmetry                                     2      11.37 ms       0.01     100.00       5.68 ms       5.60 ms       5.77 ms
├ sirius::Crystal_symmetry                                            2      11.27 ms       0.01     100.00       5.63 ms       5.54 ms       5.73 ms
├ sirius::Beta_projectors                                             2      11.17 ms       0.01     100.00       5.59 ms       4.52 ms       6.65 ms
├ sirius::K_point::generate_gkvec                                     2       7.95 ms       0.01     100.00       3.98 ms       3.83 ms       4.12 ms
├ sirius::Unit_cell::initialize                                       1       7.48 ms       0.01     100.00       7.48 ms       7.48 ms       7.48 ms
├ sirius::Beta_projectors::generate_pw_coefs_t                        2       6.96 ms       0.01     100.00       3.48 ms       3.11 ms       3.85 ms
├ sirius::K_point_set::sync_band                                     30       6.18 ms       0.01     100.00      85.01 us      34.63 us       2.06 ms
├ sirius::find_sym_atom                                              96       5.67 ms       0.01     100.00      58.46 us      57.63 us      87.76 us
├ sirius::Crystal_symmetry|spg                                        2       5.03 ms       0.01     100.00       2.51 ms       2.46 ms       2.56 ms
├ sirius::Stress|kin                                                  1       4.51 ms       0.00     100.00       4.51 ms       4.51 ms       4.51 ms
├ sirius::Simulation_context::init_atoms_to_grid_idx                  1       3.29 ms       0.00     100.00       3.29 ms       3.29 ms       3.29 ms
├ sirius::Hamiltonian_k                                              17       2.44 ms       0.00     100.00     140.60 us     131.61 us     184.16 us
├ sirius::Local_operator::prepare_k                                  17       2.25 ms       0.00     100.00     129.97 us     118.76 us     166.84 us
├ sirius::Unit_cell::find_nearest_neighbours                          2       2.23 ms       0.00     100.00       1.11 ms       1.02 ms       1.21 ms
├ sirius::Non_local_operator                                         34       1.97 ms       0.00     100.00      54.31 us      30.28 us      88.80 us
├ ffts                                                                1       1.03 ms       0.00     100.00       1.03 ms       1.03 ms       1.03 ms
├ wfcinit                                                             1     481.49 us       0.00     100.00     481.49 us     481.49 us     481.49 us
├ sirius::Atom_type::init                                             2     385.13 us       0.00     100.00     192.57 us     125.07 us     260.06 us
├ sirius::Force::symmetrize                                           6     316.71 us       0.00     100.00      43.52 us      41.16 us      89.15 us
├ sddk::matrix_storage::remap_forward                                86     229.86 us       0.00     100.00       2.50 us       1.24 us       4.83 us
├ sirius::Augmentation_operator_gvec_deriv::generate_pw_coeffs        6     213.39 us       0.00     100.00      33.46 us      26.20 us      55.01 us
├ sirius::Simulation_context::init_comm                               1      87.61 us       0.00     100.00      87.61 us      87.61 us      87.61 us
├ sirius::Crystal_symmetry|mag                                        2      57.86 us       0.00     100.00      28.93 us      24.40 us      33.46 us
├ sirius::K_point::K_point                                            8      47.21 us       0.00     100.00       5.61 us       5.09 us       8.72 us
├ sddk::wf_inner|scale_back                                         196      46.23 us       0.00     100.00     175.00 ns     124.00 ns       5.36 us
├ sddk::matrix_storage::remap_backward                               71      37.42 us       0.00     100.00     531.00 ns     234.00 ns       1.51 us
├ sddk::wf_inner|scale                                              196      30.97 us       0.00     100.00      79.50 ns      51.00 ns       8.41 us
├ sirius::Beta_projectors_base::dismiss                              36      20.37 us       0.00     100.00     489.50 ns     355.00 ns       1.12 us
├ sirius::Potential::generate_PAW_effective_potential                16       1.94 us       0.00     100.00     111.00 ns      97.00 ns     188.00 ns
├ qe|paw_becsum                                                       1       1.22 us       0.00     100.00       1.22 us       1.22 us       1.22 us
├ qe|paw_potential                                                    1       1.15 us       0.00     100.00       1.15 us       1.15 us       1.15 us
└ qe|punch                                                            1     590.00 ns       0.00     100.00     590.00 ns     590.00 ns     590.00 ns

Note: The following floating-point exceptions are signalling: IEEE_UNDERFLOW_FLAG IEEE_DENORMAL
Note: The following floating-point exceptions are signalling: IEEE_UNDERFLOW_FLAG IEEE_DENORMAL
Note: The following floating-point exceptions are signalling: IEEE_UNDERFLOW_FLAG IEEE_DENORMAL
Note: The following floating-point exceptions are signalling: IEEE_UNDERFLOW_FLAG IEEE_DENORMAL

Batch Job Summary Report (version 21.01.1) for Job "test_scf" (34843577) on daint

Job information (1/3)
2021-11-08T15:11:04 2021-11-08T15:11:04 2021-11-08T15:11:07 2021-11-08T15:12:54   00:01:47   00:40:00

Job information (2/3)
    Username      Account    Partition   NNodes        Energy
      antonk      csstaff       normal        4     73.756 kJ

Job information (3/3) - GPU utilization data
   Node name       Usage      Max mem Execution time