     Program PWSCF v.6.1 starts on 25Sep2017 at 13:20:28

     Current dimensions of program PWSCF are:
     Max number of different atomic species (ntypx) = 10
     Max number of k-points (npk) =  40000
     Max angular momentum in pseudopotentials (lmaxx) =  3

     Subspace diagonalization in iterative solution of the eigenvalue problem:
     one sub-group per band group will be used

   Info: using nr1, nr2, nr3 values from input

     bravais-lattice index     =            0
     lattice parameter (alat)  =       1.0000  a.u.
     unit-cell volume          =    8646.7719 (a.u.)^3
     number of atoms/cell      =           64
     number of atomic types    =            2
     number of electrons       =       266.00
     number of Kohn-Sham states=          160
     kinetic-energy cutoff     =      40.0000  Ry
     charge density cutoff     =     400.0000  Ry
     convergence threshold     =      1.0E-11
     mixing beta               =       0.7000
     number of iterations used =            8  plain     mixing
     Exchange-correlation      = SLA  PZ   NOGX NOGC ( 1  1  0  0 0 0)

     celldm(1)=   1.000000  celldm(2)=   0.000000  celldm(3)=   0.000000
     celldm(4)=   0.000000  celldm(5)=   0.000000  celldm(6)=   0.000000

     crystal axes: (cart. coord. in units of alat)
               a(1) = (  20.525071   0.000000   0.000000 )
               a(2) = (   0.000000  20.525071   0.000000 )
               a(3) = (   0.000000   0.000000  20.525071 )

     reciprocal axes: (cart. coord. in units 2 pi/alat)
               b(1) = (  0.048721  0.000000  0.000000 )
               b(2) = (  0.000000  0.048721  0.000000 )
               b(3) = (  0.000000  0.000000  0.048721 )

     PseudoPot. # 1 for Ge read from file:
     ./ge_lda_v1.4.uspp.F.UPF
     MD5 check sum: bf9d52b59cc8a669818bb2b52e0c2ba0
     Pseudo is Ultrasoft + core correction, Zval = 14.0
     Generated by new atomic code, or converted to UPF format
     Using radial grid of  873 points,  6 beta functions with:
                l(1) =   0
                l(2) =   0
                l(3) =   1
                l(4) =   1
                l(5) =   2
                l(6) =   2
     Q(r) pseudized with  8 coefficients,  rinner =    1.400   1.400   1.400
                                                       1.400   1.400

     PseudoPot. # 2 for Si read from file:
     ./si_lda_v1.uspp.F.UPF
     MD5 check sum: b5ade7b37ee992b02096e360e546dc2d
     Pseudo is Ultrasoft + core correction, Zval =  4.0
     Generated by new atomic code, or converted to UPF format
     Using radial grid of  899 points,  6 beta functions with:
                l(1) =   0
                l(2) =   0
                l(3) =   1
                l(4) =   1
                l(5) =   2
                l(6) =   2
     Q(r) pseudized with  8 coefficients,  rinner =    0.900   0.900   0.900
                                                       0.900   0.900

     atomic species   valence    mass     pseudopotential
        Ge            14.00    72.61000     Ge( 1.00)
        Si             4.00    28.08550     Si( 1.00)

     24 Sym. Ops. (no inversion) found

   Cartesian axes

     site n.     atom                  positions (a.u.)
         1           Ge  tau(   1) = (   0.0000000   0.0000000   0.0000000  )
         2           Si  tau(   2) = (   0.0000000   0.0000000  10.2625355  )
         3           Si  tau(   3) = (   0.0000000  10.2625355   0.0000000  )
         4           Si  tau(   4) = (   0.0000000  10.2625355  10.2625355  )
         5           Si  tau(   5) = (  10.2625355   0.0000000   0.0000000  )
         6           Si  tau(   6) = (  10.2625355   0.0000000  10.2625355  )
         7           Si  tau(   7) = (  10.2625355  10.2625355   0.0000000  )
         8           Si  tau(   8) = (  10.2625355  10.2625355  10.2625355  )
         9           Si  tau(   9) = (   0.0000000   5.1312678   5.1312678  )
        10           Si  tau(  10) = (   0.0000000   5.1312678  15.3938033  )
        11           Si  tau(  11) = (   0.0000000  15.3938033   5.1312678  )
        12           Si  tau(  12) = (   0.0000000  15.3938033  15.3938033  )
        13           Si  tau(  13) = (  10.2625355   5.1312678   5.1312678  )
        14           Si  tau(  14) = (  10.2625355   5.1312678  15.3938033  )
        15           Si  tau(  15) = (  10.2625355  15.3938033   5.1312678  )
        16           Si  tau(  16) = (  10.2625355  15.3938033  15.3938033  )
        17           Si  tau(  17) = (   5.1312678   0.0000000   5.1312678  )
        18           Si  tau(  18) = (   5.1312678   0.0000000  15.3938033  )
        19           Si  tau(  19) = (   5.1312678  10.2625355   5.1312678  )
        20           Si  tau(  20) = (   5.1312678  10.2625355  15.3938033  )
        21           Si  tau(  21) = (  15.3938033   0.0000000   5.1312678  )
        22           Si  tau(  22) = (  15.3938033   0.0000000  15.3938033  )
        23           Si  tau(  23) = (  15.3938033  10.2625355   5.1312678  )
        24           Si  tau(  24) = (  15.3938033  10.2625355  15.3938033  )
        25           Si  tau(  25) = (   5.1312678   5.1312678   0.0000000  )
        26           Si  tau(  26) = (   5.1312678   5.1312678  10.2625355  )
        27           Si  tau(  27) = (   5.1312678  15.3938033   0.0000000  )
        28           Si  tau(  28) = (   5.1312678  15.3938033  10.2625355  )
        29           Si  tau(  29) = (  15.3938033   5.1312678   0.0000000  )
        30           Si  tau(  30) = (  15.3938033   5.1312678  10.2625355  )
        31           Si  tau(  31) = (  15.3938033  15.3938033   0.0000000  )
        32           Si  tau(  32) = (  15.3938033  15.3938033  10.2625355  )
        33           Si  tau(  33) = (   7.6969016   7.6969016   2.5656339  )
        34           Si  tau(  34) = (   7.6969016   7.6969016  12.8281694  )
        35           Si  tau(  35) = (   7.6969016  17.9594371   2.5656339  )
        36           Si  tau(  36) = (   7.6969016  17.9594371  12.8281694  )
        37           Si  tau(  37) = (  17.9594371   7.6969016   2.5656339  )
        38           Si  tau(  38) = (  17.9594371   7.6969016  12.8281694  )
        39           Si  tau(  39) = (  17.9594371  17.9594371   2.5656339  )
        40           Si  tau(  40) = (  17.9594371  17.9594371  12.8281694  )
        41           Si  tau(  41) = (   7.6969016   2.5656339   7.6969016  )
        42           Si  tau(  42) = (   7.6969016   2.5656339  17.9594371  )
        43           Si  tau(  43) = (   7.6969016  12.8281694   7.6969016  )
        44           Si  tau(  44) = (   7.6969016  12.8281694  17.9594371  )
        45           Si  tau(  45) = (  17.9594371   2.5656339   7.6969016  )
        46           Si  tau(  46) = (  17.9594371   2.5656339  17.9594371  )
        47           Si  tau(  47) = (  17.9594371  12.8281694   7.6969016  )
        48           Si  tau(  48) = (  17.9594371  12.8281694  17.9594371  )
        49           Si  tau(  49) = (   2.5656339   7.6969016   7.6969016  )
        50           Si  tau(  50) = (   2.5656339   7.6969016  17.9594371  )
        51           Si  tau(  51) = (   2.5656339  17.9594371   7.6969016  )
        52           Si  tau(  52) = (   2.5656339  17.9594371  17.9594371  )
        53           Si  tau(  53) = (  12.8281694   7.6969016   7.6969016  )
        54           Si  tau(  54) = (  12.8281694   7.6969016  17.9594371  )
        55           Si  tau(  55) = (  12.8281694  17.9594371   7.6969016  )
        56           Si  tau(  56) = (  12.8281694  17.9594371  17.9594371  )
        57           Si  tau(  57) = (   2.5656339   2.5656339   2.5656339  )
        58           Si  tau(  58) = (   2.5656339   2.5656339  12.8281694  )
        59           Si  tau(  59) = (   2.5656339  12.8281694   2.5656339  )
        60           Si  tau(  60) = (   2.5656339  12.8281694  12.8281694  )
        61           Si  tau(  61) = (  12.8281694   2.5656339   2.5656339  )
        62           Si  tau(  62) = (  12.8281694   2.5656339  12.8281694  )
        63           Si  tau(  63) = (  12.8281694  12.8281694   2.5656339  )
        64           Si  tau(  64) = (  12.8281694  12.8281694  12.8281694  )

     number of k points=     4  gaussian smearing, width (Ry)=  0.0100
                       cart. coord. in units 2pi/alat
        k(    1) = (   0.0000000   0.0000000   0.0000000), wk =   0.2500000
        k(    2) = (   0.0000000   0.0000000  -0.0243605), wk =   0.7500000
        k(    3) = (   0.0000000  -0.0243605  -0.0243605), wk =   0.7500000
        k(    4) = (  -0.0243605  -0.0243605  -0.0243605), wk =   0.2500000

     Self-consistent Calculation

     iteration #  1     ecut=    40.00 Ry     beta=0.70
     ethr =  1.00E-02
Average number of iterations:     3.250000
     Ef =   0.4391090444481378

     total energy              =    -819.63132323 Ry
     Harris-Foulkes estimate   =       0.00000000 Ry
     estimated scf accuracy    <       1.82898960 Ry

[...]

     iteration # 13     ecut=    40.00 Ry     beta=0.70
     ethr =  1.00E-13
Average number of iterations:     1.000000
     Ef =   0.4640915961515935

     total energy              =    -819.77988259 Ry
     Harris-Foulkes estimate   =       0.00000000 Ry
     estimated scf accuracy    <          2.3E-11 Ry

     iteration # 14     ecut=    40.00 Ry     beta=0.70
     ethr =  1.00E-13
Average number of iterations:     1.000000
     Ef =   0.4640915788178456
     last descf =  -0.1964908624E-04

     End of self-consistent calculation

     End of self-consistent calculation

          k = 0.0000 0.0000 0.0000 ( 37073 PWs)   bands (ev):

   -18.1975 -18.1975 -18.1975 -18.1673 -18.1673  -5.9342  -4.9975  -4.8230
    -4.8230  -4.8230  -4.8210  -4.8210  -4.1146  -3.8624  -3.8624  -3.8624
    -3.8581  -3.8581  -3.8581  -3.8579  -3.8579  -3.8579  -3.8579  -3.8579
    -3.6100  -3.5665  -3.5665  -3.5665  -1.9432  -1.7638  -1.7638  -1.7638
    -1.7607  -1.7607  -1.6824  -1.5974  -1.5974  -1.5974  -1.5946  -1.5946
    -1.5946  -1.5939  -1.5939  -1.5939  -1.5937  -1.5937  -0.9553  -0.9378
    -0.9378  -0.9378   0.4470   0.5643   0.5643   0.5643   0.5678   0.5678
     0.5678   0.5688   0.5688   0.5712   0.5712   0.5712   2.1719   2.1719
     2.1719   2.1816   2.1816   2.1816   2.1825   2.1825   2.1825   2.1825
     2.1855   2.1855   2.2670   2.2727   2.2727   2.2727   2.2810   2.2810
     2.2810   2.2829   2.2829   2.2839   2.2839   2.2839   2.4693   2.5273
     2.5273   2.5309   2.5309   2.5309   3.2047   3.2047   3.2047   3.2049
     3.2049   3.2049   4.1649   4.1649   4.1649   4.1665   4.1665   4.1665
     4.1686   4.1686   4.1686   4.1773   4.1773   4.1773   4.7316   4.7316
     4.7316   4.7340   4.7340   4.7340   4.7341   4.7375   4.7375   4.7408
     4.7408   4.7408   4.8624   4.8624   4.8624   4.8656   4.8656   4.8713
     4.8713   4.8713   6.0689   6.0689   6.0689   6.6460   6.6805   6.6805
     6.6805   6.6817   6.6817   7.0850   7.1103   7.1103   7.1181   7.1181
     7.1181   7.4324   7.4911   7.4911   7.4911   8.3766   8.4253   8.4253
     8.4253   8.4278   8.4278   8.4278   8.4501   8.4501   8.4501   8.4507

[...]

[...]
sirius::Band::get_o_diag                                          :     14     0.0796     0.0056     0.0058     0.0057     100.00
sirius::Band::initialize_subspace                                 :      1     1.0541     1.0541     1.0541     1.0541      22.54
sirius::Band::initialize_subspace|kp                              :      1     0.7426     0.7426     0.7426     0.7426       0.38
sirius::Band::initialize_subspace|kp|wf                           :      1     0.0133     0.0133     0.0133     0.0133     100.00
sirius::Band::residuals                                           :     60     1.0148     0.0000     0.0550     0.0169       0.44
sirius::Band::residuals_aux                                       :     49     0.1267     0.0001     0.0089     0.0026     100.00
sirius::Band::set_subspace_mtrx                                   :     76     0.8438     0.0028     0.0348     0.0111       0.77
sirius::Band::solve_for_kset                                      :     14    25.6174     0.7196     3.7329     1.8298      12.25
sirius::Beta_projectors_base::generate                            :     75     1.0245     0.0105     0.0243     0.0137     100.00
sirius::Beta_projectors_base::inner                               :     75     2.9885     0.0046     0.1000     0.0398     100.00
sirius::DFT_ground_state::ewald_energy                            :      1     0.0144     0.0144     0.0144     0.0144     100.00
sirius::Density::add_k_point_contribution_dm                      :     14     0.9211     0.0625     0.0688     0.0658       0.59
sirius::Density::add_k_point_contribution_rg                      :     14     1.1160     0.0785     0.0826     0.0797      29.21
sirius::Density::augment                                          :     14     0.5315     0.0361     0.0388     0.0380       0.18
sirius::Density::generate_pseudo_core_charge_density              :      1     0.2124     0.2124     0.2124     0.2124       0.02
sirius::Density::generate_rho_aug                                 :     14     0.5306     0.0360     0.0387     0.0379       0.47
sirius::Density::generate_rho_aug|gemm                            :     28     0.2248     0.0057     0.0094     0.0080     100.00
sirius::Density::generate_rho_aug|phase_fac                       :     28     0.1173     0.0001     0.0086     0.0042     100.00
sirius::Density::generate_rho_aug|sum                             :     28     0.1860     0.0060     0.0071     0.0066     100.00
sirius::Density::generate_valence                                 :     14     3.7705     0.2631     0.2942     0.2693      13.33
sirius::Density::initial_density                                  :      1     0.2215     0.2215     0.2215     0.2215       2.15
sirius::K_point::initialize                                       :      1     0.0122     0.0122     0.0122     0.0122       1.73
sirius::Local_operator::apply_h                                   :     61     7.2789     0.0218     0.3110     0.1193      16.49
sirius::Local_operator::prepare                                   :     30     1.1006     0.0014     0.0766     0.0367      16.78
sirius::Non_local_operator::apply                                 :    122     4.3047     0.0028     0.0886     0.0353     100.00
sirius::Periodic_function::inner                                  :     42     0.2049     0.0017     0.0095     0.0049      56.56
sirius::Potential::Potential                                      :      1     1.0110     1.0110     1.0110     1.0110       0.83
sirius::Potential::generate_D_operator_matrix                     :     15     0.2663     0.0164     0.0215     0.0178     100.00
sirius::Potential::generate_local_potential                       :      1     1.0025     1.0025     1.0025     1.0025       0.01
sirius::Radial_integrals|aug                                      :      1     0.0388     0.0388     0.0388     0.0388     100.00
sirius::Radial_integrals|beta                                     :      2     1.2051     0.5760     0.6291     0.6025     100.00
sirius::Radial_integrals|rho_core_pseudo                          :      1     0.1661     0.1661     0.1661     0.1661     100.00
sirius::Radial_integrals|rho_pseudo                               :      1     0.1622     0.1622     0.1622     0.1622     100.00
sirius::Radial_integrals|vloc                                     :      1     0.9528     0.9528     0.9528     0.9528     100.00
sirius::Simulation_context::initialize                            :      1     1.8522     1.8522     1.8522     1.8522       0.02
sirius::Simulation_context_base::initialize                       :      1     1.5109     1.5109     1.5109     1.5109       1.88
sirius::Simulation_context_base::make_periodic_function           :      3     0.0322     0.0083     0.0153     0.0107     100.00
sirius::Smooth_periodic_function::fft_transform                   :     63     1.9172     0.0189     0.0376     0.0304      19.78
sirius::Smooth_periodic_function::gather_f_pw                     :     46     1.6457     0.0101     0.0566     0.0358     100.00
sirius::Unit_cell::find_nearest_neighbours                        :      1     0.0124     0.0124     0.0124     0.0124     100.00
sirius::Unit_cell::initialize                                     :      1     0.0217     0.0217     0.0217     0.0217       0.61
sirius_api::sirius_get_pw_coeffs                                  :     17     0.8037     0.0451     0.0579     0.0473       2.40
sirius_api::sirius_set_pw_coeffs                                  :     31     1.9436     0.0537     0.0811     0.0627      47.57
+global_timer (   39.9899s, 0.00 % of self, 100.00 % of total)
|--qe|run_pwscf (   39.9889s, 100.00 %)
qe|electrons (   36.4266s, 0.00 % of self, 91.09 % of total)
|--qe|electrons|scf (   33.4811s, 91.91 %)
|--qe|electrons|init (    2.8918s, 7.94 %)
|--sirius_api::sirius_set_pw_coeffs (    0.0537s, 0.15 %)
qe|electrons|init (    2.8918s, 1.50 % of self, 7.23 % of total)
|--sirius::Band::initialize_subspace (    1.0541s, 36.45 %)
|--sirius::Potential::Potential (    1.0110s, 34.96 %)
|--sirius::Density::initial_density (    0.2215s, 7.66 %)
|--sirius::Density::generate_pseudo_core_charge_density (    0.2124s, 7.34 %)
|--sirius_api::sirius_get_pw_coeffs (    0.1535s, 5.31 %)
|--sirius_api::sirius_set_pw_coeffs (    0.1452s, 5.02 %)
|--sirius::Potential::generate_D_operator_matrix (    0.0212s, 0.73 %)
|--sirius::DFT_ground_state::ewald_energy (    0.0144s, 0.50 %)
|--qe|v_xc (    0.0079s, 0.27 %)
|--qe|v_ha (    0.0074s, 0.25 %)
|--sirius::Band::Band (    0.0000s, 0.00 %)
qe|electrons|scf (   33.4811s, 0.62 % of self, 83.72 % of total)
|--sirius::Band::solve_for_kset (   25.6174s, 76.51 %)
|--sirius::Density::generate_valence (    3.7705s, 11.26 %)
|--qe|veff (    2.3525s, 7.03 %)
|--sirius_api::sirius_get_pw_coeffs (    0.6501s, 1.94 %)
|--sirius::Smooth_periodic_function::fft_transform (    0.4507s, 1.35 %)
|--qe|mix (    0.3171s, 0.95 %)
|--sirius::Periodic_function::inner (    0.1159s, 0.35 %)
qe|init_run|hinit0 (    0.7420s, 0.00 % of self, 1.86 % of total)
|--qe|init_run|hinit0|struc_fact (    0.7369s, 99.31 %)
|--qe|init_run|hinit0|init_us_1 (    0.0050s, 0.67 %)
|--qe|init_run|hinit0|init_igk (    0.0001s, 0.01 %)
|--qe|init_run|hinit0|init_vloc (    0.0000s, 0.00 %)
|--qe|init_run|hinit0|setlocal (    0.0000s, 0.00 %)
|--qe|init_run|hinit0|init_at_1 (    0.0000s, 0.00 %)
|--qe|init_run|hinit0|set_rhoc (    0.0000s, 0.00 %)
qe|run_pwscf (   39.9889s, 1.01 % of self, 100.00 % of total)
|--qe|run_pwscf|electrons (   36.4266s, 91.09 %)
|--qe|run_pwscf|setup_sirius (    1.8671s, 4.67 %)
|--qe|run_pwscf|init_run (    1.2773s, 3.19 %)
|--qe|run_pwscf|setup (    0.0140s, 0.03 %)
|--qe|run_pwscf|ions (    0.0000s, 0.00 %)
|--qe|run_pwscf|punch (    0.0000s, 0.00 %)
|--qe|run_pwscf|forces (    0.0000s, 0.00 %)
|--qe|run_pwscf|stress (    0.0000s, 0.00 %)
qe|run_pwscf|electrons (   36.4266s, 0.00 % of self, 91.09 % of total)
|--qe|electrons (   36.4266s, 100.00 %)
qe|run_pwscf|init_run (    1.2773s, 41.91 % of self, 3.19 % of total)
|--qe|init_run|hinit0 (    0.7420s, 58.09 %)
|--qe|init_run|potinit (    0.0000s, 0.00 %)
|--qe|init_run|newd (    0.0000s, 0.00 %)
qe|run_pwscf|setup_sirius (    1.8671s, 0.14 % of self, 4.67 % of total)
|--sirius::Simulation_context::initialize (    1.8522s, 99.20 %)
|--sirius::K_point::initialize (    0.0122s, 0.66 %)
|--sirius::K_point_set::add_kpoints (    0.0000s, 0.00 %)
|--sirius::K_point_set::K_point_set (    0.0000s, 0.00 %)
qe|veff (    2.3525s, 7.22 % of self, 5.88 % of total)
|--sirius_api::sirius_set_pw_coeffs (    1.7447s, 74.16 %)
|--sirius::Potential::generate_D_operator_matrix (    0.2451s, 10.42 %)
|--qe|v_xc (    0.1054s, 4.48 %)
|--qe|v_ha (    0.0875s, 3.72 %)
sddk::FFT3D::transform (    7.5267s, 0.20 % of self, 18.82 % of total)
|--sddk::FFT3D::transform_xy (    6.1144s, 81.24 %)
|--sddk::FFT3D::transform_z (    1.3974s, 18.57 %)
sddk::FFT3D::transform_z (    1.3974s, 0.26 % of self, 3.49 % of total)
|--sddk::FFT3D::transform_z|comm (    0.7165s, 51.28 %)
|--sddk::FFT3D::transform_z_serial (    0.6773s, 48.47 %)
sddk::wave_functions::orthogonalize (    2.7764s, 2.72 % of self, 6.94 % of total)
|--sddk::wave_functions::transform (    1.8893s, 68.05 %)
|--sddk::wave_functions::inner (    0.7453s, 26.84 %)
|--sddk::wave_functions::orthogonalize|potrf (    0.0416s, 1.50 %)
|--sddk::wave_functions::orthogonalize|trtri (    0.0245s, 0.88 %)
sddk::wave_functions::transform (    3.1443s, 96.45 % of self, 7.86 % of total)
|--sddk::wave_functions::transform|init (    0.1115s, 3.55 %)
sirius::Band::apply_h_o (   14.7557s, 0.51 % of self, 36.90 % of total)
|--sirius::Local_operator::apply_h (    7.2789s, 49.33 %)
|--sirius::Non_local_operator::apply (    4.3047s, 29.17 %)
|--sirius::Beta_projectors_base::inner (    2.2648s, 15.35 %)
|--sirius::Beta_projectors_base::generate (    0.8326s, 5.64 %)
sirius::Band::diag_pseudo_potential (   21.4745s, 0.03 % of self, 53.70 % of total)
|--sirius::Band::diag_pseudo_potential_davidson (   21.4474s, 99.87 %)
|--sirius::Local_operator::prepare (    0.0199s, 0.09 %)
|--sddk::FFT3D::prepare (    0.0003s, 0.00 %)
|--sirius::Non_local_operator::Non_local_operator (    0.0001s, 0.00 %)
sirius::Band::diag_pseudo_potential_davidson (   21.4474s, 0.00 % of self, 53.63 % of total)
|--sirius::Band::diag_pseudo_potential_davidson|iter (   21.2769s, 99.20 %)
|--sirius::Band::get_h_diag (    0.0845s, 0.39 %)
|--sirius::Band::get_o_diag (    0.0796s, 0.37 %)
|--sirius::Band::diag_pseudo_potential_davidson|alloc (    0.0057s, 0.03 %)
|--sirius::Band::diag_pseudo_potential_davidson|wf (    0.0003s, 0.00 %)
|--sirius::Beta_projectors_base::dismiss (    0.0000s, 0.00 %)
sirius::Band::diag_pseudo_potential_davidson|evp (    2.1403s, 0.08 % of self, 5.35 % of total)
|--Eigenproblem_elpa1|diag (    2.0656s, 96.51 %)
|--Eigenproblem_elpa:transform_to_standard (    0.0611s, 2.85 %)
|--Eigenproblem_elpa:transform_back (    0.0119s, 0.56 %)
sirius::Band::diag_pseudo_potential_davidson|iter (   21.2769s, 0.28 % of self, 53.21 % of total)
|--sirius::Band::apply_h_o (   14.1427s, 66.47 %)
|--sddk::wave_functions::orthogonalize (    2.7764s, 13.05 %)
|--sirius::Band::diag_pseudo_potential_davidson|evp (    2.1403s, 10.06 %)
|--sirius::Band::residuals (    1.0148s, 4.77 %)
|--sirius::Band::set_subspace_mtrx (    0.7931s, 3.73 %)
|--sirius::Band::diag_pseudo_potential_davidson|update_phi (    0.3508s, 1.65 %)
sirius::Band::initialize_subspace (    1.0541s, 22.54 % of self, 2.64 % of total)
|--sirius::Band::initialize_subspace|kp (    0.7426s, 70.45 %)
|--sirius::Local_operator::prepare (    0.0738s, 7.00 %)
sirius::Band::initialize_subspace|kp (    0.7426s, 0.38 % of self, 1.86 % of total)
|--sirius::Band::apply_h_o (    0.6129s, 82.54 %)
|--sirius::Band::set_subspace_mtrx (    0.0507s, 6.83 %)
|--sddk::wave_functions::transform (    0.0206s, 2.78 %)
|--Eigenproblem_elpa1|diag (    0.0204s, 2.75 %)
|--sirius::Band::initialize_subspace|kp|wf (    0.0133s, 1.79 %)
|--Eigenproblem_elpa:transform_to_standard (    0.0095s, 1.28 %)
|--sddk::matrix_storage::matrix_storage (    0.0093s, 1.26 %)
|--sirius::Local_operator::prepare (    0.0017s, 0.23 %)
|--Eigenproblem_elpa:transform_back (    0.0012s, 0.17 %)
|--sddk::FFT3D::prepare (    0.0000s, 0.00 %)
|--sirius::Non_local_operator::Non_local_operator (    0.0000s, 0.00 %)
|--sirius::Beta_projectors_base::prepare (    0.0000s, 0.00 %)
|--sirius::Beta_projectors_base::dismiss (    0.0000s, 0.00 %)
sirius::Band::residuals (    1.0148s, 0.44 % of self, 2.54 % of total)
|--sddk::wave_functions::transform (    0.8837s, 87.08 %)
|--sirius::Band::residuals_aux (    0.1267s, 12.48 %)
sirius::Band::set_subspace_mtrx (    0.8438s, 0.77 % of self, 2.11 % of total)
|--sddk::wave_functions::inner (    0.8374s, 99.23 %)
sirius::Band::solve_for_kset (   25.6174s, 12.25 % of self, 64.06 % of total)
|--sirius::Band::diag_pseudo_potential (   21.4745s, 83.83 %)
|--sirius::Local_operator::prepare (    1.0051s, 3.92 %)
|--sirius::K_point_set::sync_band_energies (    0.0003s, 0.00 %)
sirius::Density::add_k_point_contribution_dm (    0.9211s, 0.59 % of self, 2.30 % of total)
|--sirius::Beta_projectors_base::inner (    0.7237s, 78.57 %)
|--sirius::Beta_projectors_base::generate (    0.1920s, 20.84 %)
|--sirius::Beta_projectors_base::dismiss (    0.0000s, 0.00 %)
|--sirius::Beta_projectors_base::prepare (    0.0000s, 0.00 %)
sirius::Density::add_k_point_contribution_rg (    1.1160s, 29.21 % of self, 2.79 % of total)
|--sddk::FFT3D::transform (    0.7894s, 70.73 %)
|--sddk::FFT3D::prepare (    0.0006s, 0.06 %)
sirius::Density::augment (    0.5315s, 0.18 % of self, 1.33 % of total)
|--sirius::Density::generate_rho_aug (    0.5306s, 99.82 %)
sirius::Density::generate_rho_aug (    0.5306s, 0.47 % of self, 1.33 % of total)
|--sirius::Density::generate_rho_aug|gemm (    0.2248s, 42.37 %)
|--sirius::Density::generate_rho_aug|sum (    0.1860s, 35.06 %)
|--sirius::Density::generate_rho_aug|phase_fac (    0.1173s, 22.10 %)
sirius::Density::generate_valence (    3.7705s, 13.33 % of self, 9.43 % of total)
|--sirius::Density::add_k_point_contribution_rg (    1.1160s, 29.60 %)
|--sirius::Density::add_k_point_contribution_dm (    0.9211s, 24.43 %)
|--sirius::Density::augment (    0.5315s, 14.10 %)
|--sirius::Smooth_periodic_function::fft_transform (    0.3293s, 8.73 %)
|--sirius::Smooth_periodic_function::gather_f_pw (    0.1939s, 5.14 %)
|--sddk::matrix_storage::remap_forward (    0.1751s, 4.64 %)
|--sddk::FFT3D::prepare (    0.0010s, 0.03 %)
sirius::Local_operator::apply_h (    7.2789s, 16.49 % of self, 18.20 % of total)
|--sddk::FFT3D::transform (    4.9524s, 68.04 %)
|--sddk::matrix_storage::remap_forward (    0.5763s, 7.92 %)
|--sddk::matrix_storage::remap_backward (    0.5501s, 7.56 %)
sirius::Local_operator::prepare (    1.1006s, 16.78 % of self, 2.75 % of total)
|--sirius::Smooth_periodic_function::gather_f_pw (    0.6674s, 60.64 %)
|--sddk::FFT3D::transform (    0.2469s, 22.44 %)
|--sddk::FFT3D::prepare (    0.0017s, 0.15 %)
sirius::Potential::Potential (    1.0110s, 0.83 % of self, 2.53 % of total)
|--sirius::Potential::generate_local_potential (    1.0025s, 99.17 %)
|--sirius::Potential::init (    0.0000s, 0.00 %)
sirius::Potential::generate_local_potential (    1.0025s, 0.01 % of self, 2.51 % of total)
|--sirius::Radial_integrals|vloc (    0.9528s, 95.04 %)
|--sirius::Smooth_periodic_function::fft_transform (    0.0343s, 3.42 %)
|--sirius::Simulation_context_base::make_periodic_function (    0.0153s, 1.53 %)
sirius::Simulation_context::initialize (    1.8522s, 0.02 % of self, 4.63 % of total)
|--sirius::Simulation_context_base::initialize (    1.5109s, 81.57 %)
|--sirius::Augmentation_operator::generate_pw_coeffs (    0.3410s, 18.41 %)
sirius::Simulation_context_base::initialize (    1.5109s, 1.88 % of self, 3.78 % of total)
|--sirius::Radial_integrals|beta (    1.2051s, 79.76 %)
|--sddk::Gvec::init (    0.1790s, 11.85 %)
|--sirius::Radial_integrals|aug (    0.0388s, 2.57 %)
|--sddk::remap_gvec_to_shells|init (    0.0229s, 1.51 %)
|--sirius::Unit_cell::initialize (    0.0217s, 1.43 %)
|--sddk::FFT3D::FFT3D (    0.0150s, 1.00 %)
|--sddk::FFT3D::prepare (    0.0001s, 0.00 %)
sirius::Smooth_periodic_function::fft_transform (    1.9172s, 19.78 % of self, 4.79 % of total)
|--sddk::FFT3D::transform (    1.5380s, 80.22 %)
sirius_api::sirius_get_pw_coeffs (    0.8037s, 2.40 % of self, 2.01 % of total)
|--sirius::Smooth_periodic_function::gather_f_pw (    0.7844s, 97.60 %)
sirius_api::sirius_set_pw_coeffs (    1.9436s, 47.57 % of self, 4.86 % of total)
|--sirius::Smooth_periodic_function::fft_transform (    1.0190s, 52.43 %)

     General routines

     Parallel routines

   This run was terminated on:  13:21: 8  25Sep2017

   JOB DONE.