     Program PWSCF v.6.1 (svn rev. 13369) starts on 25Sep2017 at 13:18:51

     Current dimensions of program PWSCF are:
     Max number of different atomic species (ntypx) = 10
     Max number of k-points (npk) =  40000
     Max angular momentum in pseudopotentials (lmaxx) =  3

     bravais-lattice index     =            0
     lattice parameter (alat)  =       1.0000  a.u.
     unit-cell volume          =    8646.7719 (a.u.)^3
     number of atoms/cell      =           64
     number of atomic types    =            2
     number of electrons       =       266.00
     number of Kohn-Sham states=          160
     kinetic-energy cutoff     =      40.0000  Ry
     charge density cutoff     =     400.0000  Ry
     convergence threshold     =      1.0E-11
     mixing beta               =       0.7000
     number of iterations used =            8  plain     mixing
     Exchange-correlation      = SLA  PZ   NOGX NOGC ( 1  1  0  0 0 0)

     celldm(1)=   1.000000  celldm(2)=   0.000000  celldm(3)=   0.000000
     celldm(4)=   0.000000  celldm(5)=   0.000000  celldm(6)=   0.000000

     crystal axes: (cart. coord. in units of alat)
               a(1) = (  20.525071   0.000000   0.000000 )
               a(2) = (   0.000000  20.525071   0.000000 )
               a(3) = (   0.000000   0.000000  20.525071 )

     reciprocal axes: (cart. coord. in units 2 pi/alat)
               b(1) = (  0.048721  0.000000  0.000000 )
               b(2) = (  0.000000  0.048721  0.000000 )
               b(3) = (  0.000000  0.000000  0.048721 )

     PseudoPot. # 1 for Ge read from file:
     ./ge_lda_v1.4.uspp.F.UPF
     MD5 check sum: bf9d52b59cc8a669818bb2b52e0c2ba0
     Pseudo is Ultrasoft + core correction, Zval = 14.0
     Generated by new atomic code, or converted to UPF format
     Using radial grid of  873 points,  6 beta functions with:
                l(1) =   0
                l(2) =   0
                l(3) =   1
                l(4) =   1
                l(5) =   2
                l(6) =   2
     Q(r) pseudized with  8 coefficients,  rinner =    1.400   1.400   1.400
                                                       1.400   1.400

     PseudoPot. # 2 for Si read from file:
     ./si_lda_v1.uspp.F.UPF
     MD5 check sum: b5ade7b37ee992b02096e360e546dc2d
     Pseudo is Ultrasoft + core correction, Zval =  4.0
     Generated by new atomic code, or converted to UPF format
     Using radial grid of  899 points,  6 beta functions with:
                l(1) =   0
                l(2) =   0
                l(3) =   1
                l(4) =   1
                l(5) =   2
                l(6) =   2
     Q(r) pseudized with  8 coefficients,  rinner =    0.900   0.900   0.900
                                                       0.900   0.900

     atomic species   valence    mass     pseudopotential
        Ge            14.00    72.61000     Ge( 1.00)
        Si             4.00    28.08550     Si( 1.00)

     24 Sym. Ops. (no inversion) found

   Cartesian axes

     site n.     atom                  positions (alat units)
         1           Ge  tau(   1) = (   0.0000000   0.0000000   0.0000000  )
         2           Si  tau(   2) = (   0.0000000   0.0000000  10.2625355  )
         3           Si  tau(   3) = (   0.0000000  10.2625355   0.0000000  )
         4           Si  tau(   4) = (   0.0000000  10.2625355  10.2625355  )
         5           Si  tau(   5) = (  10.2625355   0.0000000   0.0000000  )
         6           Si  tau(   6) = (  10.2625355   0.0000000  10.2625355  )
         7           Si  tau(   7) = (  10.2625355  10.2625355   0.0000000  )
         8           Si  tau(   8) = (  10.2625355  10.2625355  10.2625355  )
         9           Si  tau(   9) = (   0.0000000   5.1312678   5.1312678  )
        10           Si  tau(  10) = (   0.0000000   5.1312678  15.3938033  )
        11           Si  tau(  11) = (   0.0000000  15.3938033   5.1312678  )
        12           Si  tau(  12) = (   0.0000000  15.3938033  15.3938033  )
        13           Si  tau(  13) = (  10.2625355   5.1312678   5.1312678  )
        14           Si  tau(  14) = (  10.2625355   5.1312678  15.3938033  )
        15           Si  tau(  15) = (  10.2625355  15.3938033   5.1312678  )
        16           Si  tau(  16) = (  10.2625355  15.3938033  15.3938033  )
        17           Si  tau(  17) = (   5.1312678   0.0000000   5.1312678  )
        18           Si  tau(  18) = (   5.1312678   0.0000000  15.3938033  )
        19           Si  tau(  19) = (   5.1312678  10.2625355   5.1312678  )
        20           Si  tau(  20) = (   5.1312678  10.2625355  15.3938033  )
        21           Si  tau(  21) = (  15.3938033   0.0000000   5.1312678  )
        22           Si  tau(  22) = (  15.3938033   0.0000000  15.3938033  )
        23           Si  tau(  23) = (  15.3938033  10.2625355   5.1312678  )
        24           Si  tau(  24) = (  15.3938033  10.2625355  15.3938033  )
        25           Si  tau(  25) = (   5.1312678   5.1312678   0.0000000  )
        26           Si  tau(  26) = (   5.1312678   5.1312678  10.2625355  )
        27           Si  tau(  27) = (   5.1312678  15.3938033   0.0000000  )
        28           Si  tau(  28) = (   5.1312678  15.3938033  10.2625355  )
        29           Si  tau(  29) = (  15.3938033   5.1312678   0.0000000  )
        30           Si  tau(  30) = (  15.3938033   5.1312678  10.2625355  )
        31           Si  tau(  31) = (  15.3938033  15.3938033   0.0000000  )
        32           Si  tau(  32) = (  15.3938033  15.3938033  10.2625355  )
        33           Si  tau(  33) = (   7.6969016   7.6969016   2.5656339  )
        34           Si  tau(  34) = (   7.6969016   7.6969016  12.8281694  )
        35           Si  tau(  35) = (   7.6969016  17.9594371   2.5656339  )
        36           Si  tau(  36) = (   7.6969016  17.9594371  12.8281694  )
        37           Si  tau(  37) = (  17.9594371   7.6969016   2.5656339  )
        38           Si  tau(  38) = (  17.9594371   7.6969016  12.8281694  )
        39           Si  tau(  39) = (  17.9594371  17.9594371   2.5656339  )
        40           Si  tau(  40) = (  17.9594371  17.9594371  12.8281694  )
        41           Si  tau(  41) = (   7.6969016   2.5656339   7.6969016  )
        42           Si  tau(  42) = (   7.6969016   2.5656339  17.9594371  )
        43           Si  tau(  43) = (   7.6969016  12.8281694   7.6969016  )
        44           Si  tau(  44) = (   7.6969016  12.8281694  17.9594371  )
        45           Si  tau(  45) = (  17.9594371   2.5656339   7.6969016  )
        46           Si  tau(  46) = (  17.9594371   2.5656339  17.9594371  )
        47           Si  tau(  47) = (  17.9594371  12.8281694   7.6969016  )
        48           Si  tau(  48) = (  17.9594371  12.8281694  17.9594371  )
        49           Si  tau(  49) = (   2.5656339   7.6969016   7.6969016  )
        50           Si  tau(  50) = (   2.5656339   7.6969016  17.9594371  )
        51           Si  tau(  51) = (   2.5656339  17.9594371   7.6969016  )
        52           Si  tau(  52) = (   2.5656339  17.9594371  17.9594371  )
        53           Si  tau(  53) = (  12.8281694   7.6969016   7.6969016  )
        54           Si  tau(  54) = (  12.8281694   7.6969016  17.9594371  )
        55           Si  tau(  55) = (  12.8281694  17.9594371   7.6969016  )
        56           Si  tau(  56) = (  12.8281694  17.9594371  17.9594371  )
        57           Si  tau(  57) = (   2.5656339   2.5656339   2.5656339  )
        58           Si  tau(  58) = (   2.5656339   2.5656339  12.8281694  )
        59           Si  tau(  59) = (   2.5656339  12.8281694   2.5656339  )
        60           Si  tau(  60) = (   2.5656339  12.8281694  12.8281694  )
        61           Si  tau(  61) = (  12.8281694   2.5656339   2.5656339  )
        62           Si  tau(  62) = (  12.8281694   2.5656339  12.8281694  )
        63           Si  tau(  63) = (  12.8281694  12.8281694   2.5656339  )
        64           Si  tau(  64) = (  12.8281694  12.8281694  12.8281694  )

     number of k points=     4  gaussian smearing, width (Ry)=  0.0100
                       cart. coord. in units 2pi/alat
        k(    1) = (   0.0000000   0.0000000   0.0000000), wk =   0.2500000
        k(    2) = (   0.0000000   0.0000000  -0.0243605), wk =   0.7500000
        k(    3) = (   0.0000000  -0.0243605  -0.0243605), wk =   0.7500000
        k(    4) = (  -0.0243605  -0.0243605  -0.0243605), wk =   0.2500000

     Initial potential from superposition of free atoms

     starting charge  265.96130, renormalised to  266.00000
     Starting wfc are  261 randomized atomic wfcs

     Self-consistent Calculation

     iteration #  1     ecut=    40.00 Ry     beta=0.70
     Davidson diagonalization with overlap
     ethr =  1.00E-02,  avg # of iterations =  3.0

     Threshold (ethr) on eigenvalues was too large:
     Diagonalizing with lowered threshold

     Davidson diagonalization with overlap
     ethr =  6.98E-04,  avg # of iterations =  1.8

     total energy              =    -819.66837646 Ry
     Harris-Foulkes estimate   =    -820.31248333 Ry
     estimated scf accuracy    <       1.83810650 Ry

[...]

     total energy              =    -819.77177894 Ry
     Harris-Foulkes estimate   =    -819.77177894 Ry
     estimated scf accuracy    <          1.0E-11 Ry

     iteration # 15     ecut=    40.00 Ry     beta=0.70
     Davidson diagonalization with overlap
     ethr =  1.00E-13,  avg # of iterations =  1.0

     End of self-consistent calculation

          k = 0.0000 0.0000 0.0000 ( 37073 PWs)   bands (ev):

   -18.1967 -18.1967 -18.1967 -18.1664 -18.1664  -5.9340  -4.9973  -4.8227
    -4.8227  -4.8227  -4.8208  -4.8208  -4.1144  -3.8622  -3.8622  -3.8622
    -3.8578  -3.8578  -3.8578  -3.8577  -3.8577  -3.8576  -3.8576  -3.8576
    -3.6097  -3.5663  -3.5663  -3.5663  -1.9429  -1.7635  -1.7635  -1.7635
    -1.7604  -1.7604  -1.6821  -1.5971  -1.5971  -1.5971  -1.5943  -1.5943
    -1.5943  -1.5936  -1.5936  -1.5936  -1.5934  -1.5934  -0.9550  -0.9375
    -0.9375  -0.9375   0.4474   0.5646   0.5646   0.5646   0.5682   0.5682
     0.5682   0.5691   0.5691   0.5715   0.5715   0.5715   2.1723   2.1723
     2.1723   2.1819   2.1819   2.1819   2.1828   2.1828   2.1828   2.1829
     2.1859   2.1859   2.2674   2.2731   2.2731   2.2731   2.2814   2.2814
     2.2814   2.2833   2.2833   2.2842   2.2842   2.2842   2.4696   2.5277
     2.5277   2.5312   2.5312   2.5312   3.2051   3.2051   3.2051   3.2053
     3.2053   3.2053   4.1653   4.1653   4.1653   4.1669   4.1669   4.1669
     4.1690   4.1690   4.1690   4.1777   4.1777   4.1777   4.7320   4.7320
     4.7320   4.7344   4.7344   4.7344   4.7345   4.7380   4.7380   4.7412
     4.7412   4.7412   4.8628   4.8628   4.8628   4.8661   4.8661   4.8718
     4.8718   4.8718   6.0692   6.0692   6.0692   6.6461   6.6805   6.6805
     6.6805   6.6817   6.6817   7.0851   7.1105   7.1105   7.1182   7.1182
     7.1182   7.4326   7.4913   7.4913   7.4913   8.3767   8.4255   8.4255
     8.4255   8.4280   8.4280   8.4280   8.4501   8.4501   8.4501   8.4508

[...]

          k = 0.0000-0.0244-0.0244 ( 37020 PWs)   bands (ev):

[...]

          k =-0.0244-0.0244-0.0244 ( 37056 PWs)   bands (ev):

   -18.1967 -18.1967 -18.1967 -18.1664 -18.1664  -5.3167  -5.1047  -5.1047
    -5.1047  -5.1027  -5.1024  -5.1024  -5.1024  -3.6152  -3.1916  -3.1916
    -3.1916  -3.1835  -3.1835  -3.1835  -3.1834  -3.1834  -3.1831  -3.1831
    -3.1831  -3.1831  -3.1828  -3.1828  -3.1828  -3.1825  -3.1825  -3.1825
    -3.1824  -3.1824  -3.1824  -3.1824  -3.1824  -0.5912  -0.3468  -0.3468
    -0.3468  -0.3346  -0.3346  -0.3346  -0.3340  -0.3339  -0.3339  -0.3339
    -0.3339  -0.3339  -0.3339  -0.3339  -0.3339  -0.3332  -0.3332  -0.3331
    -0.3331  -0.3331  -0.3316  -0.3316  -0.3316   2.0601   2.1105   2.1105
     2.1105   2.1135   2.1189   2.1189   2.1189   2.4673   2.4885   2.4885
     2.4885   2.5020   2.5020   2.5020   2.5025   2.5025   2.5025   2.5029
     2.5029   2.5029   2.5030   2.5030   2.5030   2.5030   2.5030   2.5031
     2.5081   2.5081   2.5081   2.5087   2.5087   3.8486   3.8486   3.8486
     3.8505   3.8505   3.8505   3.8544   3.8544   3.8544   3.8551   3.8553
     3.8553   3.8553   3.8556   3.8556   3.8557   3.8557   3.8557   3.8557
     3.8579   3.8579   3.8616   3.8616   3.8616   5.3000   5.3000   5.3000
     5.3011   5.3011   5.3011   5.3016   5.3016   5.3020   5.3020   5.3020
     5.3030   5.3030   5.3249   5.3249   5.3249   7.3965   7.4863   7.4863
     7.4863   7.4878   7.4890   7.4890   7.4890   7.4894   7.4894   7.4895
     7.4895   7.4895   7.4898   7.4898   7.4898   7.4905   7.4905   7.4905
     7.5324   7.5324   7.5324   7.5393   7.5393   7.9113   7.9825   7.9825

     the Fermi energy is     6.3145 ev

!    total energy              =    -819.77177894 Ry
     Harris-Foulkes estimate   =    -819.77177894 Ry
     estimated scf accuracy    <          7.4E-13 Ry

     The total energy is the sum of the following terms:

     one-electron contribution =     -48.96907898 Ry
     hartree contribution      =     151.40313158 Ry
     xc contribution           =    -328.89322642 Ry
     ewald contribution        =    -593.31243382 Ry
     smearing contrib. (-TS)   =      -0.00017130 Ry

     convergence has been achieved in  15 iterations

     General routines

     Parallel routines

   This run was terminated on:  13:20:24  25Sep2017

   JOB DONE.