     Program PWSCF v.6.8 starts on 11Oct2021 at 10:58: 6

     Reading input from aiida.in

     Current dimensions of program PWSCF are:
     Max number of different atomic species (ntypx) = 10
     Max number of k-points (npk) =  40000
     Max angular momentum in pseudopotentials (lmaxx) =  4
     file O.pbe-n-kjpaw_psl.0.1.UPF: wavefunction(s)  2P renormalized
     Message from routine setup:
     using ibrav=0 with symmetry is DISCOURAGED, use correct ibrav instead

     Subspace diagonalization in iterative solution of the eigenvalue problem:
     a serial algorithm will be used

     Using Slab Decomposition

     bravais-lattice index     =            0
     lattice parameter (alat)  =      10.5934  a.u.
     unit-cell volume          =     285.2215 (a.u.)^3
     number of atoms/cell      =            4
     number of atomic types    =            3
     number of electrons       =        35.00
     number of Kohn-Sham states=           22
     kinetic-energy cutoff     =      50.0000  Ry
     charge density cutoff     =    1000.0000  Ry
     scf convergence threshold =      1.0E-11
     mixing beta               =       0.7000
     number of iterations used =            8  plain     mixing
     energy convergence thresh.=      1.0E-04
     force convergence thresh. =      1.0E-03
     press convergence thresh. =      5.0E-01
     Exchange-correlation= SLA  PW   PBX  PBC
                           (   1   4   3   4   0   0   0)
     nstep                     =           50

     celldm(1)=  10.593382  celldm(2)=   0.000000  celldm(3)=   0.000000
     celldm(4)=   0.000000  celldm(5)=   0.000000  celldm(6)=   0.000000

     crystal axes: (cart. coord. in units of alat)
               a(1) = (   0.269988   0.155878   0.950162 )
               a(2) = (  -0.269988   0.155878   0.950162 )
               a(3) = (   0.000000  -0.311756   0.950162 )

     reciprocal axes: (cart. coord. in units 2 pi/alat)
               b(1) = (  1.851932  1.069213  0.350817 )
               b(2) = ( -1.851932  1.069213  0.350817 )
               b(3) = ( -0.000000 -2.138427  0.350817 )

     PseudoPot. # 1 for Cr read from file:
     ./pseudo/cr_pbe_v1.5.uspp.F.UPF
     MD5 check sum: 0d52af634a40206e4dee301ad30da4bf
     Pseudo is Ultrasoft + core correction, Zval = 14.0
     Generated by new atomic code, or converted to UPF format
     Using radial grid of  857 points,  6 beta functions with:
                l(1) =   0
                l(2) =   0
                l(3) =   1
                l(4) =   1
                l(5) =   2
                l(6) =   2
     Q(r) pseudized with  8 coefficients,  rinner =    0.950   0.950   0.950
                                                       0.950   0.950

     PseudoPot. # 2 for Na read from file:
     ./pseudo/Na_ONCV_PBE-1.0.upf
     MD5 check sum: 8619a8fc970a30df18a75067eea56141
     Pseudo is Norm-conserving, Zval =  9.0
     Generated using ONCVPSP code by D. R. Hamann
     Using radial grid of  602 points,  4 beta functions with:
                l(1) =   0
                l(2) =   0
                l(3) =   1
                l(4) =   1

     PseudoPot. # 3 for O  read from file:
     ./pseudo/O.pbe-n-kjpaw_psl.0.1.UPF
     MD5 check sum: 3f94a2996a3169367d6eb21d9b593f20
     Pseudo is Projector augmented-wave + core cor, Zval =  6.0
     Generated using "atomic" code by A. Dal Corso  v.5.0.99 svn rev. 10869
     Shape of augmentation charge: BESSEL
     Using radial grid of 1095 points,  4 beta functions with:
                l(1) =   0
                l(2) =   0
                l(3) =   1
                l(4) =   1
     Q(r) pseudized with 0 coefficients

     atomic species   valence    mass     pseudopotential
        Cr            14.00    51.99600     Cr( 1.00)
        Na             9.00    22.98977     Na( 1.00)
        O              6.00    15.99940     O ( 1.00)

     12 Sym. Ops., with inversion, found

                                    s                        frac. trans.

      isym =  1     identity

 cryst.   s( 1) = (     1          0          0      )
                  (     0          1          0      )
                  (     0          0          1      )

 cart.    s( 1) = (  1.0000000  0.0000000  0.0000000 )
                  (  0.0000000  1.0000000 -0.0000000 )
                  ( -0.0000000  0.0000000  1.0000000 )

      isym =  2     180 deg rotation - cart. axis [1,0,0]

[...]

      isym =  3     120 deg rotation - cryst. axis [0,0,1]

[...]

      isym =  7     inversion

[...]

      isym =  8     inv. 180 deg rotation - cart. axis [1,0,0]

[...]

      isym =  9     inv. 120 deg rotation - cryst. axis [0,0,1]

[...]

 cryst.   s(10) = (     0          0         -1      )
                  (    -1          0          0      )
                  (     0         -1          0      )

 cart.    s(10) = (  0.5000000 -0.8660254 -0.0000000 )
                  (  0.8660254  0.5000000  0.0000000 )
                  ( -0.0000000 -0.0000000 -1.0000000 )

[...]

   Cartesian axes

     site n.     atom                  positions (alat units)
         1           Cr  tau(   1) = (   0.0000000   0.0000000   1.4252435  )
         2           Na  tau(   2) = (   0.0000000   0.0000000   2.8504869  )
         3           O   tau(   3) = (   0.0000000   0.0000000   0.6594884  )
         4           O   tau(   4) = (   0.0000000   0.0000000   2.1909986  )

   Crystallographic axes

     site n.     atom                  positions (cryst. coord.)
         1           Cr  tau(   1) = (  0.5000000  0.5000000  0.5000000  )
         2           Na  tau(   2) = (  1.0000000  1.0000000  1.0000000  )
         3           O   tau(   3) = (  0.2313599  0.2313599  0.2313599  )
         4           O   tau(   4) = (  0.7686401  0.7686401  0.7686401  )

     number of k points=    13  Gaussian smearing, width (Ry)=  0.1000
                       cart. coord. in units 2pi/alat
        k(    1) = (   0.0000000   0.0000000   0.0000000), wk =   0.0312500
        k(    2) = (  -0.0000000  -0.5346067   0.0877043), wk =   0.1875000
        k(    3) = (   0.0000000   1.0692135  -0.1754086), wk =   0.0937500
        k(    4) = (  -0.4629830  -0.2673034   0.1754086), wk =   0.1875000
        k(    5) = (  -0.4629830   1.3365168  -0.0877043), wk =   0.3750000
        k(    6) = (  -0.4629830   0.8019101   0.0000000), wk =   0.1875000
        k(    7) = (   0.9259660   0.5346067  -0.3508173), wk =   0.0937500
        k(    8) = (  -0.0000000   0.0000000   0.2631129), wk =   0.0625000
        k(    9) = (   0.0000000   1.6038202   0.0000000), wk =   0.1875000
        k(   10) = (   0.0000000   1.0692135   0.0877043), wk =   0.1875000
        k(   11) = (   1.3889490   0.8019101  -0.2631129), wk =   0.1875000
        k(   12) = (   1.3889490   0.2673034  -0.1754086), wk =   0.1875000
        k(   13) = (   0.0000000   0.0000000  -0.5262259), wk =   0.0312500

                       cryst. coord.
        k(    1) = (   0.0000000   0.0000000   0.0000000), wk =   0.0312500
        k(    2) = (  -0.0000000  -0.0000000   0.2500000), wk =   0.1875000
        k(    3) = (   0.0000000   0.0000000  -0.5000000), wk =   0.0937500
        k(    4) = (  -0.0000000   0.2500000   0.2500000), wk =   0.1875000
        k(    5) = (   0.0000000   0.2500000  -0.5000000), wk =   0.3750000
        k(    6) = (  -0.0000000   0.2500000  -0.2500000), wk =   0.1875000
        k(    7) = (   0.0000000  -0.5000000  -0.5000000), wk =   0.0937500
        k(    8) = (   0.2500000   0.2500000   0.2500000), wk =   0.0625000
        k(    9) = (   0.2500000   0.2500000  -0.5000000), wk =   0.1875000
        k(   10) = (   0.2500000   0.2500000  -0.2500000), wk =   0.1875000
        k(   11) = (   0.2500000  -0.5000000  -0.5000000), wk =   0.1875000
        k(   12) = (   0.2500000  -0.5000000  -0.2500000), wk =   0.1875000
        k(   13) = (  -0.5000000  -0.5000000  -0.5000000), wk =   0.0312500

     Check: negative core charge=   -0.000003

     Initial potential from superposition of free atoms

     starting charge   33.86328, renormalised to   35.00000

     negative rho (up, down):  8.398E-04 0.000E+00
     Starting wfcs are   18 randomized atomic wfcs +    4 random wfcs
     Checking if some PAW data can be deallocated...

     Self-consistent Calculation

     iteration #  1     ecut=    50.00 Ry     beta= 0.70
     Davidson diagonalization with overlap

     ethr =  1.00E-02,  avg # of iterations =  6.8

     negative rho (up, down):  1.477E-03 0.000E+00

     total energy              =    -343.79666152 Ry
     Harris-Foulkes estimate   =    -344.61835619 Ry
     estimated scf accuracy    <       0.98785794 Ry

     Band energy sum           =     -28.23337169 Ry

[...]

     End of self-consistent calculation

          k = 0.0000 0.0000 0.0000 (  1697 PWs)   bands (ev):

   -61.4082 -41.2374 -32.7288 -32.7288 -32.6816 -13.2449 -13.1589 -13.1589
    -9.1498  -7.7072   3.9290   5.3527   5.3527   7.5897   7.8656   7.8656
    10.4391  10.4391  11.3334  13.3275  13.4160  13.4160

     occupation numbers
     1.0000   1.0000   1.0000   1.0000   1.0000   1.0000   1.0000   1.0000
     1.0000   1.0000   1.0000   1.0000   1.0000   0.9998   0.9994   0.9994
     0.7068   0.7068   0.3499   0.0070   0.0054   0.0054

          k =-0.0000-0.5346 0.0877 (  1707 PWs)   bands (ev):

[...]

     the Fermi energy is    10.9624 ev

!    total energy              =    -344.30997679 Ry
     Harris-Foulkes estimate   =    -344.30997679 Ry
     estimated scf accuracy    <          4.8E-12 Ry
     smearing contrib. (-TS)   =      -0.16987107 Ry
     internal energy E=F+TS    =    -344.14010572 Ry

     The total energy is F=E-TS. E is the sum of the following terms:
     one-electron contribution =    -151.16083064 Ry
     hartree contribution      =      91.38907225 Ry
     xc contribution           =     -49.94282234 Ry
     ewald contribution        =    -215.39703557 Ry
     one-center paw contrib.   =     -19.02848942 Ry
      -> PAW hartree energy AE =      52.91992418 Ry
      -> PAW hartree energy PS =     -52.66819396 Ry
      -> PAW xc energy AE      =     -33.43993709 Ry
      -> PAW xc energy PS      =      14.15971746 Ry
      -> total E_H with PAW    =      91.64080246 Ry
      -> total E_XC with PAW   =     -69.22304197 Ry

[...]

     convergence has been achieved in  14 iterations

     evp_work_count     :       3330
     num_loc_op_applied :      10896

[...]

     Forces acting on atoms (cartesian axes, Ry/au):

     atom    1 type  1   force =     0.00000000   -0.00000000   -0.00000000
     atom    2 type  2   force =     0.00000000    0.00000000    0.00000000
     atom    3 type  3   force =    -0.00000000   -0.00000000    0.00313758
     atom    4 type  3   force =     0.00000000    0.00000000   -0.00313758
     The non-local contrib.  to forces
     atom    1 type  1   force =    -0.00000000    0.00000000    0.00000000
     atom    2 type  2   force =     0.00000000    0.00000000   -0.00000000
     atom    3 type  3   force =     0.00000000   -0.00000000   -0.52856305
     atom    4 type  3   force =    -0.00000000    0.00000000    0.52856305
     The ionic contribution  to forces
[...]
│ │ │ │ └ fft                           749       1.57 s        0.35     100.00       2.06 ms       1.88 ms      10.84 ms
│ │ │ └ v_h                             107       1.29 s        0.29      82.14      11.91 ms      10.55 ms      27.90 ms
│ │ │   └ fft                           107     229.80 ms       0.05     100.00       2.01 ms       1.85 ms      16.00 ms
│ │ ├ PAW_pot                           107       2.02 s        0.45     100.00      18.82 ms      17.09 ms      21.62 ms
│ │ ├ PAW_symme                         107       3.17 ms       0.00     100.00      30.15 us      20.41 us      43.35 us
│ │ ├ interpolate                       107     657.44 ms       0.15      63.74       6.10 ms       5.80 ms       7.54 ms
│ │ │ ├ fft                             107     221.61 ms       0.05     100.00       2.06 ms       1.91 ms       2.39 ms
│ │ │ └ ffts                            107      16.77 ms       0.00     100.00     147.40 us     130.55 us     237.85 us
│ │ └ newd                              107      56.34 s       12.71      99.64     527.41 ms     489.64 ms     593.14 ms
│ │   └ fft                             107     205.31 ms       0.05     100.00       1.90 ms       1.74 ms       2.64 ms
│ ├ ions                                  7      77.98 s       17.60       0.04      11.11 s       10.88 s       11.37 s
│ │ ├ forces                              7      12.18 s        2.75       0.67       1.76 s        1.69 s        1.77 s
│ │ │ ├ frc_us                            7       4.08 s        0.92      96.84     584.99 ms     567.29 ms     589.18 ms
│ │ │ │ ├ init_us_2                      91      85.58 ms       0.02     100.00     944.41 us     773.57 us       1.15 ms
│ │ │ │ ├ calbec                        364      28.66 ms       0.01     100.00      66.25 us      59.78 us     359.86 us
│ │ │ │ └ fft                             7      14.52 ms       0.00     100.00       2.05 ms       2.00 ms       2.26 ms
│ │ │ ├ frc_lc                            7     121.62 ms       0.03      88.13      16.84 ms      15.55 ms      20.02 ms
│ │ │ │ └ fft                             7      14.44 ms       0.00     100.00       2.05 ms       1.95 ms       2.24 ms
│ │ │ ├ frc_cc                            7       3.98 s        0.90      56.92     574.93 ms     547.69 ms     581.59 ms
│ │ │ │ ├ v_xc                            7       1.70 s        0.38      93.33     239.54 ms     234.88 ms     258.39 ms
│ │ │ │ │ └ fft                          49     113.40 ms       0.03     100.00       2.05 ms       1.90 ms       8.72 ms
│ │ │ │ └ fft                             7      14.35 ms       0.00     100.00       2.07 ms       2.00 ms       2.09 ms
│ │ │ └ frc_scc                           7       3.93 s        0.89      99.63     561.42 ms     550.45 ms     568.86 ms
│ │ │   └ fft                             7      14.47 ms       0.00     100.00       2.05 ms       2.03 ms       2.22 ms
│ │ └ stress                              7      65.77 s       14.84      96.79       9.39 s        9.19 s        9.61 s
│ │   ├ fft                              49     124.57 ms       0.03     100.00       2.07 ms       1.98 ms      16.16 ms
│ │   ├ v_xc                              7       1.71 s        0.38      94.12     241.53 ms     238.18 ms     257.42 ms
│ │   │ └ fft                            49     100.29 ms       0.02     100.00       2.03 ms       1.87 ms       2.28 ms
│ │   ├ init_us_2                        91      86.80 ms       0.02     100.00     971.55 us     768.55 us       1.24 ms
│ │   ├ calbec                           91      85.82 ms       0.02     100.00     431.57 us     137.15 us       3.63 ms
│ │   ├ stres_us31                       91       1.58 ms       0.00     100.00      15.57 us      10.52 us      33.29 us
│ │   ├ stres_us32                       91      27.86 ms       0.01     100.00     321.83 us     203.63 us     409.52 us
│ │   ├ stres_us33                       91      56.96 ms       0.01     100.00     636.30 us     552.57 us     774.92 us
│ │   └ stres_us34                       91      21.51 ms       0.00     100.00     236.69 us     180.15 us     291.21 us
│ ├ update_pot                            5      17.27 s        3.90      40.73       3.46 s        3.43 s        3.47 s
│ │ ├ init_vloc                           5       8.81 s        1.99     100.00       1.76 s        1.73 s        1.78 s
│ │ ├ fft                                15      30.72 ms       0.01     100.00       2.07 ms       1.92 ms       2.13 ms
│ │ ├ v_of_rho                            5       1.31 s        0.30       0.02     262.15 ms     257.34 ms     264.36 ms
│ │ │ ├ v_xc                              5       1.23 s        0.28      93.72     247.14 ms     242.51 ms     249.53 ms
│ │ │ │ └ fft                            35      77.43 ms       0.02     100.00       2.20 ms       2.05 ms       2.58 ms
│ │ │ └ v_h                               5      75.67 ms       0.02      86.38      14.97 ms      14.72 ms      15.75 ms
│ │ │   └ fft                             5      10.31 ms       0.00     100.00       2.07 ms       1.95 ms       2.16 ms
│ │ └ PAW_pot                             5      93.31 ms       0.02     100.00      18.50 ms      18.47 ms      19.27 ms
│ ├ qe|hinit1                             5       2.92 s        0.66       0.01     583.54 ms     576.12 ms     591.05 ms
│ │ ├ qe|setlocal                         5      67.00 ms       0.02      84.49      13.37 ms      13.13 ms      13.68 ms
│ │ │ └ fft                               5      10.39 ms       0.00     100.00       2.04 ms       1.93 ms       2.21 ms
│ │ ├ qe|set_vrs                          5      46.42 ms       0.01      34.11       9.31 ms       9.22 ms       9.36 ms
│ │ │ └ interpolate                       5      30.58 ms       0.01      63.88       6.12 ms       6.04 ms       6.22 ms
│ │ │   ├ fft                             5      10.33 ms       0.00     100.00       2.04 ms       1.99 ms       2.16 ms
│ │ │   └ ffts                            5     714.06 us       0.00     100.00     138.22 us     136.84 us     151.77 us
│ │ ├ compute_becsum                      5      80.10 ms       0.02      12.02      16.08 ms      15.65 ms      16.60 ms
│ │ │ ├ init_us_2                        65      61.63 ms       0.01     100.00     941.57 us     894.67 us       1.15 ms
│ │ │ ├ sum_band:calbec                  65       6.96 ms       0.00       4.90      98.38 us      70.02 us     346.00 us
│ │ │ │ └ calbec                         65       6.62 ms       0.00     100.00      93.68 us      65.14 us     339.54 us
│ │ │ ├ sum_band:becsum                  65       1.70 ms       0.00     100.00      24.63 us      22.24 us      43.23 us
│ │ │ └ PAW_symme                         5     183.64 us       0.00     100.00      34.63 us      33.61 us      45.21 us
│ │ ├ PAW_pot                             5      90.50 ms       0.02     100.00      18.03 ms      17.86 ms      18.60 ms
│ │ ├ PAW_symme                           5     148.39 us       0.00     100.00      29.79 us      28.73 us      30.46 us
│ │ └ newd                                5       2.64 s        0.60      99.64     527.25 ms     519.68 ms     534.17 ms
│ │   └ fft                               5       9.50 ms       0.00     100.00       1.89 ms       1.88 ms       1.94 ms
│ └ qe|punch                              1      29.86 ms       0.01     100.00      29.86 ms      29.86 ms      29.86 ms
└ sirius::finalize                        1      30.71 us       0.00     100.00      30.71 us      30.71 us      30.71 us

                            #         Total          %     Self %        Median           Min           Max
sirius                      1     443.19 s      100.00       0.00     443.19 s      443.19 s      443.19 s
├ PWSCF                     1     443.19 s      100.00     100.00     443.19 s      443.19 s      443.19 s
├ electrons                 7     335.01 s       75.59     100.00      49.66 s       37.27 s       60.82 s
├ c_bands                 107     168.25 s       37.96     100.00     913.12 ms     323.77 ms      10.35 s
├ cegterg                1391     165.27 s       37.29     100.00      82.98 ms      16.43 ms       1.14 s
├ h_psi_bgrp             5935     102.81 s       23.20     100.00       7.18 ms     348.73 us     167.25 ms
├ h_psi                  5935     102.78 s       23.19     100.00       7.17 ms     345.69 us     167.25 ms
├ h_psi:pot              5935      96.35 s       21.74     100.00       7.11 ms     335.51 us     163.97 ms
├ vloc_psi               5935      94.62 s       21.35     100.00       6.94 ms     281.92 us     163.78 ms
├ ions                      7      77.98 s       17.60     100.00      11.11 s       10.88 s       11.37 s
├ fftw                   194k      75.66 s       17.07     100.00     120.48 us     109.24 us      32.41 ms
├ stress                    7      65.77 s       14.84     100.00       9.39 s        9.19 s        9.61 s
├ newd                    114      60.01 s       13.54     100.00     527.32 ms     489.64 ms     593.14 ms
├ sum_band                107      56.97 s       12.85     100.00     526.41 ms     457.27 ms     623.07 ms
├ addusdens               107      45.44 s       10.25     100.00     428.36 ms     375.22 ms     466.60 ms
├ v_xc                    128      31.32 s        7.07     100.00     242.23 ms     234.88 ms     288.70 ms
├ v_of_rho                114      29.31 s        6.61     100.00     254.29 ms     247.34 ms     300.92 ms
├ addusd:qvan2            214      26.33 s        5.94     100.00     106.11 ms      27.01 ms     230.05 ms
├ cegterg:last           3058      26.03 s        5.87     100.00       3.57 ms      37.56 us      22.27 ms
├ cegterg:update         4518      17.66 s        3.98     100.00     121.91 us      24.97 us      12.04 ms
├ update_pot                5      17.27 s        3.90     100.00       3.46 s        3.43 s        3.47 s
├ forces                    7      12.18 s        2.75     100.00       1.76 s        1.69 s        1.77 s
├ init_vloc                 7      11.86 s        2.68     100.00       1.75 s        1.50 s        1.78 s
├ init_run                  2       9.81 s        2.21     100.00       4.91 s        4.83 s        4.98 s
├ sum_band:loop           107       9.02 s        2.03     100.00      69.24 ms      59.84 ms     169.50 ms
├ addusd:dgemm            214       6.91 s        1.56     100.00      27.37 ms       5.53 ms      70.23 ms
├ hinit0                    2       6.65 s        1.50     100.00       3.32 s        3.28 s        3.36 s
├ g_psi                  4518       5.59 s        1.26     100.00      49.02 us       6.67 us       5.02 ms
├ frc_us                    7       4.08 s        0.92     100.00     584.99 ms     567.29 ms     589.18 ms
├ frc_cc                    7       3.98 s        0.90     100.00     574.93 ms     547.69 ms     581.59 ms
├ frc_scc                   7       3.93 s        0.89     100.00     561.42 ms     550.45 ms     568.86 ms
├ cegterg:diag           5818       3.74 s        0.84     100.00     651.65 us     132.19 us       7.02 ms
├ cdiaghg                5844       3.70 s        0.83     100.00     640.23 us     127.54 us       7.01 ms
├ fft                    1648       3.69 s        0.83     100.00       2.07 ms       1.74 ms      16.66 ms
├ qe|hinit1                 5       2.92 s        0.66     100.00     583.54 ms     576.12 ms     591.05 ms
├ init_us_2              3055       2.83 s        0.64     100.00     939.13 us     705.86 us       1.59 ms
├ init_us_1                 2       2.63 s        0.59     100.00       1.32 s        1.31 s        1.32 s
├ qe|mix                  107       2.49 s        0.56     100.00      23.72 ms     237.09 us      51.67 ms
├ mix_rho                 107       2.49 s        0.56     100.00      23.69 ms     222.92 us      51.64 ms
├ PAW_pot                 119       2.24 s        0.50     100.00      18.76 ms      17.09 ms      21.62 ms
├ sum_band:sym_rho        107       1.84 s        0.41     100.00      16.84 ms      16.22 ms      22.82 ms
├ potinit                   2       1.71 s        0.39     100.00     855.88 ms     829.08 ms     882.69 ms
├ v_h                     114       1.39 s        0.31     100.00      11.94 ms      10.55 ms      27.90 ms
├ sum_band:init_us_2     1391       1.26 s        0.28     100.00     930.32 us     709.96 us       1.26 ms
├ cegterg:overlap        4518       1.24 s        0.28     100.00     144.80 us      38.32 us       8.51 ms
├ s_psi_bgrp             5935       1.16 s        0.26     100.00      83.39 us      19.28 us       6.99 ms
├ calbec                 7846       1.09 s        0.25     100.00      70.74 us      20.95 us       3.83 ms
├ h_psi:calbec           5935     898.38 ms       0.20     100.00      76.44 us      24.50 us       3.85 ms
├ add_vuspsi             5935     766.30 ms       0.17     100.00      66.49 us      16.65 us       3.61 ms
├ interpolate             114     701.04 ms       0.16     100.00       6.10 ms       5.80 ms       7.54 ms
├ s_psi                  5935     650.94 ms       0.15     100.00      62.71 us      12.82 us       3.62 ms
├ cegterg:init           1391     285.42 ms       0.06     100.00     198.16 us     146.28 us       6.31 ms
├ wfcinit                   2     284.64 ms       0.06     100.00     142.32 ms     126.35 ms     158.29 ms
├ wfcinit:wfcrot           26     232.99 ms       0.05     100.00       9.46 ms       7.51 ms      10.94 ms
├ wfcrot                   26     232.90 ms       0.05     100.00       9.46 ms       7.51 ms      10.93 ms
├ rotwfck                  26     232.79 ms       0.05     100.00       9.45 ms       7.51 ms      10.92 ms
├ rotwfck:hpsi             26     216.50 ms       0.05     100.00       8.59 ms       6.89 ms      10.16 ms
├ sum_band:buffer        1391     152.76 ms       0.03     100.00     105.75 us      91.63 us     631.51 us
├ qe|setlocal               7     124.56 ms       0.03     100.00      13.48 ms      13.13 ms      31.49 ms
├ frc_lc                    7     121.62 ms       0.03     100.00      16.84 ms      15.55 ms      20.02 ms
├ sum_band:calbec        1456     120.95 ms       0.03     100.00      75.81 us      68.33 us     346.00 us
├ addusd:skk              214     107.37 ms       0.02     100.00     494.75 us     306.50 us       2.07 ms
├ compute_becsum            5      80.10 ms       0.02     100.00      16.08 ms      15.65 ms      16.60 ms
├ qe|set_vrs                7      73.46 ms       0.02     100.00       9.31 ms       9.22 ms      13.72 ms
├ stres_us33               91      56.96 ms       0.01     100.00     636.30 us     552.57 us     774.92 us
├ ffts                    221      55.72 ms       0.01     100.00     219.78 us     130.55 us     722.98 us
├ sum_band:becsum        1456      40.67 ms       0.01     100.00      25.61 us      19.58 us     144.50 us
├ qe|paw_potential          2      38.30 ms       0.01     100.00      19.15 ms      18.36 ms      19.94 ms
├ sum_band:weights        107      31.75 ms       0.01     100.00     291.13 us     207.11 us     527.13 us
├ qe|punch                  1      29.86 ms       0.01     100.00      29.86 ms      29.86 ms      29.86 ms
├ stres_us32               91      27.86 ms       0.01     100.00     321.83 us     203.63 us     409.52 us
├ stres_us34               91      21.51 ms       0.00     100.00     236.69 us     180.15 us     291.21 us
├ wfcinit:atomic           26      14.92 ms       0.00     100.00     578.05 us     474.47 us     600.59 us
├ atomic_wfc               26      14.79 ms       0.00     100.00     573.25 us     469.94 us     595.33 us
├ PAW_symme               226       7.73 ms       0.00     100.00      32.13 us      20.41 us      53.07 us
├ rotwfck:hc               26       7.14 ms       0.00     100.00     270.28 us     261.39 us     326.88 us
├ rotwfck:diag             26       4.94 ms       0.00     100.00     166.99 us     155.28 us     606.73 us
├ qe|setup                  1       4.15 ms       0.00     100.00       4.15 ms       4.15 ms       4.15 ms
├ rotwfck:evc              26       3.91 ms       0.00     100.00     145.89 us     138.81 us     184.49 us
├ stres_us31               91       1.58 ms       0.00     100.00      15.57 us      10.52 us      33.29 us
├ qe|paw_becsum             2     133.66 us       0.00     100.00      66.83 us      60.75 us      72.91 us
├ sirius::initialize        1     131.96 us       0.00     100.00     131.96 us     131.96 us     131.96 us
└ sirius::finalize          1      30.71 us       0.00     100.00      30.71 us      30.71 us      30.71 us

Note: The following floating-point exceptions are signalling: IEEE_UNDERFLOW_FLAG IEEE_DENORMAL