     Program PWSCF v.6.8 starts on 11Oct2021 at 12:25:20

     Reading input from aiida.in

     Current dimensions of program PWSCF are:
     Max number of different atomic species (ntypx) = 10
     Max number of k-points (npk) =  40000
     Max angular momentum in pseudopotentials (lmaxx) =  4
     file O.pbe-n-kjpaw_psl.0.1.UPF: wavefunction(s)  2P renormalized
     Message from routine setup:
     using ibrav=0 with symmetry is DISCOURAGED, use correct ibrav instead

     Subspace diagonalization in iterative solution of the eigenvalue problem:
     a serial algorithm will be used

     Using Slab Decomposition

     bravais-lattice index     =            0
     lattice parameter (alat)  =      10.5934  a.u.
     unit-cell volume          =     285.2215 (a.u.)^3
     number of atoms/cell      =            4
     number of atomic types    =            3
     number of electrons       =        35.00
     number of Kohn-Sham states=           22
     kinetic-energy cutoff     =      50.0000  Ry
     charge density cutoff     =    1000.0000  Ry
     scf convergence threshold =      1.0E-11
     mixing beta               =       0.7000
     number of iterations used =            8  plain     mixing
     energy convergence thresh.=      1.0E-04
     force convergence thresh. =      1.0E-03
     press convergence thresh. =      5.0E-01
     Exchange-correlation= SLA  PW   PBX  PBC
                           (   1   4   3   4   0   0   0)
     nstep                     =           50

     celldm(1)=  10.593382  celldm(2)=   0.000000  celldm(3)=   0.000000
     celldm(4)=   0.000000  celldm(5)=   0.000000  celldm(6)=   0.000000

     crystal axes: (cart. coord. in units of alat)
               a(1) = (   0.269988   0.155878   0.950162 )
               a(2) = (  -0.269988   0.155878   0.950162 )
               a(3) = (   0.000000  -0.311756   0.950162 )

     reciprocal axes: (cart. coord. in units 2 pi/alat)
               b(1) = (  1.851932  1.069213  0.350817 )
               b(2) = ( -1.851932  1.069213  0.350817 )
               b(3) = ( -0.000000 -2.138427  0.350817 )

     PseudoPot. # 1 for Cr read from file:
     ./pseudo/cr_pbe_v1.5.uspp.F.UPF
     MD5 check sum: 0d52af634a40206e4dee301ad30da4bf
     Pseudo is Ultrasoft + core correction, Zval = 14.0
     Generated by new atomic code, or converted to UPF format
     Using radial grid of  857 points,  6 beta functions with:
                l(1) =   0
                l(2) =   0
                l(3) =   1
                l(4) =   1
                l(5) =   2
                l(6) =   2
     Q(r) pseudized with  8 coefficients,  rinner =    0.950   0.950   0.950
                                                       0.950   0.950

     PseudoPot. # 2 for Na read from file:
     ./pseudo/Na_ONCV_PBE-1.0.upf
     MD5 check sum: 8619a8fc970a30df18a75067eea56141
     Pseudo is Norm-conserving, Zval =  9.0
     Generated using ONCVPSP code by D. R. Hamann
     Using radial grid of  602 points,  4 beta functions with:
                l(1) =   0
                l(2) =   0
                l(3) =   1
                l(4) =   1

     PseudoPot. # 3 for O  read from file:
     ./pseudo/O.pbe-n-kjpaw_psl.0.1.UPF
     MD5 check sum: 3f94a2996a3169367d6eb21d9b593f20
     Pseudo is Projector augmented-wave + core cor, Zval =  6.0
     Generated using "atomic" code by A. Dal Corso  v.5.0.99 svn rev. 10869
     Shape of augmentation charge: BESSEL
     Using radial grid of 1095 points,  4 beta functions with:
                l(1) =   0
                l(2) =   0
                l(3) =   1
                l(4) =   1
     Q(r) pseudized with 0 coefficients

     atomic species   valence    mass     pseudopotential
        Cr            14.00    51.99600     Cr( 1.00)
        Na             9.00    22.98977     Na( 1.00)
        O              6.00    15.99940     O ( 1.00)

     12 Sym. Ops., with inversion, found

                                    s                        frac. trans.

      isym =  1     identity

 cryst.   s( 1) = (     1          0          0      )
                  (     0          1          0      )
                  (     0          0          1      )

 cart.    s( 1) = (  1.0000000  0.0000000  0.0000000 )
                  (  0.0000000  1.0000000 -0.0000000 )
                  ( -0.0000000  0.0000000  1.0000000 )

      isym =  2     180 deg rotation - cart. axis [1,0,0]

[...]

      isym =  3     120 deg rotation - cryst. axis [0,0,1]

[...]

      isym =  7     inversion

[...]

      isym =  8     inv. 180 deg rotation - cart. axis [1,0,0]

[...]

      isym =  9     inv. 120 deg rotation - cryst. axis [0,0,1]

[...]

 cryst.   s(10) = (     0          0         -1      )
                  (    -1          0          0      )
                  (     0         -1          0      )

 cart.    s(10) = (  0.5000000 -0.8660254 -0.0000000 )
                  (  0.8660254  0.5000000  0.0000000 )
                  ( -0.0000000 -0.0000000 -1.0000000 )

[...]

   Cartesian axes

     site n.     atom                  positions (alat units)
         1           Cr  tau(   1) = (   0.0000000   0.0000000   1.4252435  )
         2           Na  tau(   2) = (   0.0000000   0.0000000   2.8504869  )
         3           O   tau(   3) = (   0.0000000   0.0000000   0.6594884  )
         4           O   tau(   4) = (   0.0000000   0.0000000   2.1909986  )

   Crystallographic axes

     site n.     atom                  positions (cryst. coord.)
         1           Cr  tau(   1) = (  0.5000000  0.5000000  0.5000000  )
         2           Na  tau(   2) = (  1.0000000  1.0000000  1.0000000  )
         3           O   tau(   3) = (  0.2313599  0.2313599  0.2313599  )
         4           O   tau(   4) = (  0.7686401  0.7686401  0.7686401  )

     number of k points=    13  Gaussian smearing, width (Ry)=  0.1000
                       cart. coord. in units 2pi/alat
        k(    1) = (   0.0000000   0.0000000   0.0000000), wk =   0.0312500
        k(    2) = (  -0.0000000  -0.5346067   0.0877043), wk =   0.1875000
        k(    3) = (   0.0000000   1.0692135  -0.1754086), wk =   0.0937500
        k(    4) = (  -0.4629830  -0.2673034   0.1754086), wk =   0.1875000
        k(    5) = (  -0.4629830   1.3365168  -0.0877043), wk =   0.3750000
        k(    6) = (  -0.4629830   0.8019101   0.0000000), wk =   0.1875000
        k(    7) = (   0.9259660   0.5346067  -0.3508173), wk =   0.0937500
        k(    8) = (  -0.0000000   0.0000000   0.2631129), wk =   0.0625000
        k(    9) = (   0.0000000   1.6038202   0.0000000), wk =   0.1875000
        k(   10) = (   0.0000000   1.0692135   0.0877043), wk =   0.1875000
        k(   11) = (   1.3889490   0.8019101  -0.2631129), wk =   0.1875000
        k(   12) = (   1.3889490   0.2673034  -0.1754086), wk =   0.1875000
        k(   13) = (   0.0000000   0.0000000  -0.5262259), wk =   0.0312500

                       cryst. coord.
        k(    1) = (   0.0000000   0.0000000   0.0000000), wk =   0.0312500
        k(    2) = (  -0.0000000  -0.0000000   0.2500000), wk =   0.1875000
        k(    3) = (   0.0000000   0.0000000  -0.5000000), wk =   0.0937500
        k(    4) = (  -0.0000000   0.2500000   0.2500000), wk =   0.1875000
        k(    5) = (   0.0000000   0.2500000  -0.5000000), wk =   0.3750000
        k(    6) = (  -0.0000000   0.2500000  -0.2500000), wk =   0.1875000
        k(    7) = (   0.0000000  -0.5000000  -0.5000000), wk =   0.0937500
        k(    8) = (   0.2500000   0.2500000   0.2500000), wk =   0.0625000
        k(    9) = (   0.2500000   0.2500000  -0.5000000), wk =   0.1875000
        k(   10) = (   0.2500000   0.2500000  -0.2500000), wk =   0.1875000
        k(   11) = (   0.2500000  -0.5000000  -0.5000000), wk =   0.1875000
        k(   12) = (   0.2500000  -0.5000000  -0.2500000), wk =   0.1875000
        k(   13) = (  -0.5000000  -0.5000000  -0.5000000), wk =   0.0312500

SIRIUS version : 7.2.8
git hash       : 589ccf589dda66cbcce7b02683cba0c7a6e3f3ae
git branch     : heads/experimental/switch-fp32-to-fp64
build time     : 2021-10-08 15:54:50
start time     : Mon, 11 Oct 2021 12:25:24

page size (Kb)                : 4
number of pages               : 16466695

FFT context for density and potential
  comm size                             : 1
  plane wave cutoff                     : 31.622777
  grid size                             : 108 108 108   total : 1259712
  grid limits                           : -53 54   -53 54   -53 54
  number of G-vectors within the cutoff : 76152
  local number of G-vectors             : 76152
  number of G-shells                    : 12121

FFT context for coarse grid
  comm size                             : 1
  plane wave cutoff                     : 14.142136
  grid size                             : 50 50 50   total : 125000
  grid limits                           : -24 25   -24 25   -24 25
  number of G-vectors within the cutoff : 6788
  local number of G-vectors             : 6788
  number of G-shells                    : 1210

number of local G-vector blocks: 1

Unit cell
lattice vectors
  a1 :       2.8600891671       1.6512732506      10.0654319112
  a2 :      -2.8600891671       1.6512732506      10.0654319112
  a3 :       0.0000000000      -3.3025465012      10.0654319112
reciprocal lattice vectors
  b1 :       1.0984247238       0.6341758100       0.2080780160
  b2 :      -1.0984247238       0.6341758100       0.2080780160
  b3 :      -0.0000000000      -1.2683516199       0.2080780160

unit cell volume :       285.22145072 [a.u.^3]
1/sqrt(omega)    :         0.05921189
MT volume        : 0.000000 ( 0.00%)
IT volume        : 285.221451 (100.00%)

number of atom types : 3
type id : 0   symbol :      mt_radius : 206.524747, num_atoms: 1
type id : 1   symbol :      mt_radius :   6.010000, num_atoms: 1
type id : 2   symbol :      mt_radius :  99.043432, num_atoms: 2
total number of atoms : 4
number of symmetry classes : 3
number of PAW atoms : 2

atom id              position                    vector_field        type id    class id
     0      0.500000 0.500000 0.500000   0.000000 0.000000 0.000000        0           0
     1      1.000000 1.000000 1.000000   0.000000 0.000000 0.000000        1           1
     2      0.231360 0.231360 0.231360   0.000000 0.000000 0.000000        2           2
     3      0.768640 0.768640 0.768640   0.000000 0.000000 0.000000        2           2

class id : 0   atom id : 0
class id : 1   atom id : 1
class id : 2   atom id : 2 3

atom id              position (Cartesian, a.u.)
     0          0.000000000000     0.000000000000    15.098147866697
     1          0.000000000000     0.000000000000    30.196295733395
     2          0.000000000000    -0.000000000000     6.986211790170
     3         -0.000000000000    -0.000000000000    23.210083943413

[...]

minimum bond length:       3.837050868507

number of pseudo wave-functions: 18

space group number   : 166
international symbol : R-3m
Hall symbol          : -R 3 2"
space group transformation matrix :
    0.666667    -0.333333    -0.333333
    0.333333     0.333333    -0.666667
    0.333333     0.333333     0.333333
space group origin shift :
[...]
├ sirius::Density::generate_rho_aug|gemm                            240       1.65 s        0.61     100.00       6.92 ms       1.90 ms      16.28 ms
├ potinit                                                             2       1.57 s        0.58     100.00     785.04 ms     703.69 ms     866.40 ms
├ sirius::Stress|vloc                                                 8       1.46 s        0.54     100.00     193.65 ms     145.58 ms     210.12 ms
├ sirius::Augmentation_operator::generate_pw_coeffs                  18       1.36 s        0.50     100.00      75.74 ms       8.05 ms     157.59 ms
├ setup_sirius                                                        2       1.35 s        0.50     100.00     674.85 ms     599.53 ms     750.16 ms
├ sirius::Periodic_function::integrate                              136       1.33 s        0.49     100.00       9.72 ms       9.14 ms      11.40 ms
├ sirius::Force::calc_forces_us                                       8       1.26 s        0.47     100.00     156.65 ms     153.84 ms     161.09 ms
├ sirius::Hamiltonian_k::get_h_o_diag                              1560       1.23 s        0.46     100.00     677.10 us     585.20 us      36.02 ms
├ sirius::normalized_preconditioned_residuals                      5068       1.17 s        0.43     100.00     189.99 us      55.27 us      13.52 ms
├ newd                                                                2       1.08 s        0.40     100.00     539.14 ms     511.21 ms     567.08 ms
├ sirius::Simulation_context::make_periodic_function                 58       1.01 s        0.37     100.00      17.66 ms      13.51 ms      19.68 ms
├ sirius::Force::calc_forces_ewald                                    8     924.96 ms       0.34     100.00     117.23 ms     106.78 ms     123.43 ms
├ sirius::gradient                                                  136     919.99 ms       0.34     100.00       5.67 ms       5.43 ms      20.06 ms
├ sirius::Simulation_context::initialize                              2     903.81 ms       0.34     100.00     451.91 ms     417.26 ms     486.55 ms
├ qe|update                                                           6     837.44 ms       0.31     100.00     137.51 ms     131.91 ms     153.28 ms
├ sirius::K_point_set::find_band_occupancies                        120     835.73 ms       0.31     100.00       6.12 ms       4.90 ms      42.52 ms
├ sirius::Density::update                                            17     827.37 ms       0.31     100.00      49.49 ms      39.76 ms      53.05 ms
├ sirius::Density::generate_pseudo_core_charge_density               17     810.81 ms       0.30     100.00      48.47 ms      38.18 ms      52.41 ms
├ sirius::Stress|us|gemm                                            144     758.55 ms       0.28     100.00       5.21 ms       3.56 ms       8.39 ms
├ sirius::Density::initial_density                                    8     701.02 ms       0.26     100.00      90.41 ms      80.79 ms      92.10 ms
├ sirius::Stress|kin                                                  8     686.26 ms       0.25     100.00      85.78 ms      82.76 ms      88.46 ms
├ sirius::Beta_projectors_base::inner                              9852     684.62 ms       0.25     100.00      60.66 us      20.90 us       2.93 ms
├ sirius::Potential::update                                           9     684.07 ms       0.25     100.00      77.34 ms      62.45 ms      81.13 ms
├ sirius::Potential::generate_local_potential                         9     670.16 ms       0.25     100.00      75.93 ms      60.94 ms      79.54 ms
├ sirius::Non_local_functor::add_k_point                            208     650.69 ms       0.24     100.00       3.14 ms       1.17 ms       7.77 ms
├ sirius::Stress|nonloc                                               8     588.54 ms       0.22     100.00      67.53 ms      64.04 ms      98.45 ms
├ sirius::Non_local_operator::apply                               13672     588.40 ms       0.22     100.00      43.06 us      13.57 us       8.21 ms
├ sirius::Density                                                    10     534.92 ms       0.20     100.00      51.78 ms      50.27 ms      61.51 ms
├ sirius::dot                                                       128     497.92 ms       0.18     100.00       3.39 ms       3.16 ms       8.11 ms
├ v_of_rho                                                            2     497.55 ms       0.18     100.00     248.77 ms     194.74 ms     302.81 ms
├ v_xc                                                                2     474.32 ms       0.18     100.00     237.16 ms     183.90 ms     290.42 ms
├ sirius::Augmentation_operator_gvec_deriv                            8     423.99 ms       0.16     100.00      53.02 ms      51.24 ms      55.10 ms
├ sirius::Force::calc_forces_vloc                                     8     401.29 ms       0.15     100.00      45.34 ms      39.69 ms      67.45 ms
├ sirius::Density::mixer_output                                     120     364.47 ms       0.14     100.00       3.06 ms       2.43 ms       4.17 ms
├ sddk::Gvec_shells                                                   9     339.46 ms       0.13     100.00      37.69 ms      35.97 ms      39.78 ms
├ sddk::Gvec::find_gvec_shells                                       18     334.73 ms       0.12     100.00      17.19 ms       2.55 ms      36.56 ms
├ sddk::orthogonalize|potrf                                       11696     333.48 ms       0.12     100.00      12.79 us       1.20 us     603.44 us
├ sirius::Stress|us|phase_fac                                        16     287.56 ms       0.11     100.00      18.03 ms      16.01 ms      20.48 ms
├ sirius::Force::calc_forces_core                                     8     274.39 ms       0.10     100.00      38.12 ms      25.12 ms      39.47 ms
├ sirius::Potential                                                   2     237.69 ms       0.09     100.00     118.85 ms      88.67 ms     149.02 ms
├ sirius::Force::calc_forces_scf_corr                                 8     236.15 ms       0.09     100.00      31.32 ms      22.82 ms      35.08 ms
├ sirius::Force::calc_forces_nonloc                                   8     206.49 ms       0.08     100.00      23.46 ms      21.92 ms      33.24 ms
├ sirius::Periodic_function::add                                    256     205.07 ms       0.08     100.00     787.95 us     683.98 us       1.97 ms
├ sirius::Density::add_k_point_contribution_dm                     1560     187.65 ms       0.07     100.00      99.23 us      82.27 us       2.99 ms
├ sirius::Hamiltonian0                                              136     175.06 ms       0.06     100.00     738.44 us     667.23 us      31.83 ms
├ sirius::Radial_integrals|atomic_wfs                                 8     169.59 ms       0.06     100.00      16.67 ms       1.48 us      55.30 ms
├ sirius::Beta_projectors_base::generate                           1482     164.15 ms       0.06     100.00      97.00 us      81.41 us       1.38 ms
├ sirius::K_point_set::initialize                                     2     162.11 ms       0.06     100.00      81.06 ms      68.42 ms      93.70 ms
├ sirius::K_point::initialize                                        52     161.13 ms       0.06     100.00       2.82 ms       2.45 ms       4.76 ms
├ sirius_api::sirius_get_wave_functions                             104     150.06 ms       0.06     100.00       1.43 ms       1.25 ms       2.00 ms
├ sirius::K_point::update                                           234     142.42 ms       0.05     100.00     531.89 us     410.10 us       2.24 ms
├ sirius::Stress|ewald                                                8     127.12 ms       0.05     100.00      15.91 ms      15.22 ms      16.46 ms
├ sddk::orthogonalize|trtri                                       11696     126.04 ms       0.05     100.00       6.73 us     782.00 ns     229.31 us
├ sddk::Gvec::init                                                   56     122.94 ms       0.05     100.00     387.15 us     344.30 us      48.02 ms
├ sirius::Local_operator                                            136     119.07 ms       0.04     100.00     455.76 us     406.07 us      26.52 ms
├ sirius::Beta_projectors_strain_deriv::generate_pw_coefs_t         104     115.21 ms       0.04     100.00       1.23 ms     688.82 us       1.35 ms
├ sirius::K_point::generate_atomic_wave_functions                   208     109.63 ms       0.04     100.00     406.96 us     362.33 us      24.42 ms
├ sirius::K_point::generate_gkvec                                    52     104.55 ms       0.04     100.00       1.86 ms       1.43 ms       3.50 ms
├ sirius::Hamiltonian_k                                            1768     104.00 ms       0.04     100.00      18.79 us      11.29 us       2.72 ms
├ sirius::Beta_projectors                                           234      94.73 ms       0.04     100.00     318.28 us     223.14 us       1.99 ms
├ sirius::Local_operator::prepare_k                                1768      93.69 ms       0.03     100.00      12.90 us       8.00 us       2.71 ms
├ sirius::Density::mixer_input                                      120      86.88 ms       0.03     100.00     717.29 us     550.46 us     912.21 us
├ sirius::Simulation_context::init_atoms_to_grid_idx                  9      79.55 ms       0.03     100.00       7.06 ms       6.86 ms      14.58 ms
├ sirius::Density::symmetrize_density_matrix                        120      56.82 ms       0.02     100.00     461.30 us     409.60 us     784.11 us
├ sirius::Beta_projectors::generate_pw_coefs_t                      234      55.87 ms       0.02     100.00     183.42 us     124.29 us     704.67 us
├ sirius::Band::initialize_subspace|kp|wf                           208      53.52 ms       0.02     100.00     241.56 us     203.15 us       3.19 ms
├ fft                                                                26      52.59 ms       0.02     100.00       2.00 ms       1.73 ms       2.65 ms
├ sirius::Stress|har                                                  8      48.27 ms       0.02     100.00       6.04 ms       5.82 ms       6.22 ms
├ sirius::Stress|us|prepare                                         144      43.46 ms       0.02     100.00     311.72 us     181.64 us     565.70 us
├ sirius::Augmentation_operator_gvec_deriv::prepare                  16      43.28 ms       0.02     100.00       2.51 ms       1.40 ms       4.63 ms
├ qe|setlocal                                                         2      42.85 ms       0.02     100.00      21.42 ms      13.24 ms      29.60 ms
├ qe|paw_potential                                                    2      39.77 ms       0.01     100.00      19.88 ms      19.81 ms      19.96 ms
├ PAW_pot                                                             2      39.72 ms       0.01     100.00      19.86 ms      19.79 ms      19.93 ms
├ Eigensolver_lapack|zhegvx                                         104      37.31 ms       0.01     100.00     346.46 us     320.02 us     621.43 us
├ sirius::Q_operator::initialize                                    136      33.94 ms       0.01     100.00     164.84 us     147.94 us       2.82 ms
├ sirius::Unit_cell::update                                          11      29.49 ms       0.01     100.00       2.60 ms       2.38 ms       3.18 ms
├ qe|punch                                                            1      28.07 ms       0.01     100.00      28.07 ms      28.07 ms      28.07 ms
├ sddk::wf_inner                                                    416      27.52 ms       0.01     100.00      60.63 us      36.42 us     125.12 us
├ sirius::Unit_cell::get_symmetry                                    11      27.32 ms       0.01     100.00       2.35 ms       2.21 ms       2.83 ms
├ sirius::Crystal_symmetry                                           11      26.76 ms       0.01     100.00       2.28 ms       2.15 ms       2.79 ms
├ sddk::wf_inner|pw                                                 416      26.20 ms       0.01     100.00      58.33 us      35.41 us     114.83 us
├ sirius::Crystal_symmetry|spg                                       11      23.53 ms       0.01     100.00       1.97 ms       1.86 ms       2.50 ms
├ qe|set_vrs                                                          2      23.28 ms       0.01     100.00      11.64 ms       9.88 ms      13.40 ms
├ v_h                                                                 2      23.14 ms       0.01     100.00      11.57 ms      10.80 ms      12.34 ms
├ sirius::K_point_set::sync_band                                    240      22.02 ms       0.01     100.00      34.18 us      20.70 us       5.46 ms
├ sddk::matrix_storage::remap_forward                              8396      19.99 ms       0.01     100.00       2.01 us     772.00 ns      51.25 us
├ sirius::D_operator::initialize                                    136      19.85 ms       0.01     100.00      84.11 us      80.55 us       2.65 ms
├ Eigensolver_lapack|chegvx                                         104      14.95 ms       0.01     100.00     120.05 us     103.76 us       1.04 ms
├ sddk::wf_trans                                                    208      14.69 ms       0.01     100.00      43.95 us      26.18 us     489.05 us
├ sddk::wf_trans|pw                                                 208      14.10 ms       0.01     100.00      41.49 us      24.29 us     484.81 us
├ interpolate                                                         2      12.67 ms       0.00     100.00       6.33 ms       6.28 ms       6.39 ms
├ sirius::Unit_cell::initialize                                       2       6.93 ms       0.00     100.00       3.47 ms       3.38 ms       3.55 ms
├ sddk::matrix_storage::remap_backward                             6836       4.72 ms       0.00     100.00     578.00 ns     102.00 ns      28.74 us
├ qe|setup                                                            1       4.15 ms       0.00     100.00       4.15 ms       4.15 ms       4.15 ms
├ sirius::Unit_cell::find_nearest_neighbours                         11       2.08 ms       0.00     100.00     163.75 us      74.12 us     446.94 us
├ sirius::Atom_type::init                                             6     932.10 us       0.00     100.00     147.54 us     116.82 us     233.44 us
├ sirius::Force::symmetrize                                          48     706.96 us       0.00     100.00      13.90 us       6.25 us      38.98 us
├ ffts                                                                2     601.64 us       0.00     100.00     300.82 us     276.57 us     325.06 us
├ sirius::Non_local_operator                                        272     382.51 us       0.00     100.00       1.21 us     151.00 ns      16.83 us
├ sirius::Beta_projectors_base::prepare                             208     303.31 us       0.00     100.00       1.25 us     621.00 ns       5.93 us
├ sirius::find_sym_atom                                             264     271.15 us       0.00     100.00     584.00 ns     443.00 ns      23.68 us
├ sirius::K_point::K_point                                           52     202.75 us       0.00     100.00       3.23 us       2.49 us      23.67 us
├ sirius::Crystal_symmetry|mag                                       11     168.85 us       0.00     100.00      14.26 us       9.77 us      26.74 us
├ qe|paw_becsum                                                       2     150.45 us       0.00     100.00      75.23 us      63.97 us      86.48 us
├ sirius::initialize                                                  1     118.85 us       0.00     100.00     118.85 us     118.85 us     118.85 us
├ PAW_symme                                                           2      99.76 us       0.00     100.00      49.88 us      48.27 us      51.50 us
├ sirius::Simulation_context::init_comm                               2      99.52 us       0.00     100.00      49.76 us      42.80 us      56.73 us
├ sddk::wf_inner|scale_back                                         416      97.11 us       0.00     100.00     182.00 ns      77.00 ns       1.36 us
├ sirius::Beta_projectors_base::dismiss                             208      50.62 us       0.00     100.00      67.00 ns      40.00 ns      17.12 us
├ sddk::wf_inner|scale                                              416      46.43 us       0.00     100.00      81.00 ns      43.00 ns      11.29 us
└ sirius::finalize                                                    1       8.02 us       0.00     100.00       8.02 us       8.02 us       8.02 us

Note: The following floating-point exceptions are signalling: IEEE_UNDERFLOW_FLAG IEEE_DENORMAL