     Program PWSCF v.6.8 starts on 11Oct2021 at 12:32:29

     Reading input from aiida.in

     Current dimensions of program PWSCF are:
     Max number of different atomic species (ntypx) = 10
     Max number of k-points (npk) =  40000
     Max angular momentum in pseudopotentials (lmaxx) =  4
     file O.pbe-n-kjpaw_psl.0.1.UPF: wavefunction(s)  2P renormalized
     Message from routine setup:
     using ibrav=0 with symmetry is DISCOURAGED, use correct ibrav instead

     Subspace diagonalization in iterative solution of the eigenvalue problem:
     a serial algorithm will be used

     Using Slab Decomposition

     bravais-lattice index     =            0
     lattice parameter (alat)  =      10.5934  a.u.
     unit-cell volume          =     285.2215 (a.u.)^3
     number of atoms/cell      =            4
     number of atomic types    =            3
     number of electrons       =        35.00
     number of Kohn-Sham states=           22
     kinetic-energy cutoff     =      50.0000  Ry
     charge density cutoff     =    1000.0000  Ry
     scf convergence threshold =      1.0E-11
     mixing beta               =       0.7000
     number of iterations used =            8  plain     mixing
     energy convergence thresh.=      1.0E-04
     force convergence thresh. =      1.0E-03
     press convergence thresh. =      5.0E-01
     Exchange-correlation= SLA  PW   PBX  PBC
                           (   1   4   3   4   0   0   0)
     nstep                     =           50

     celldm(1)=  10.593382  celldm(2)=   0.000000  celldm(3)=   0.000000
     celldm(4)=   0.000000  celldm(5)=   0.000000  celldm(6)=   0.000000

     crystal axes: (cart. coord. in units of alat)
               a(1) = (   0.269988   0.155878   0.950162 )
               a(2) = (  -0.269988   0.155878   0.950162 )
               a(3) = (   0.000000  -0.311756   0.950162 )

     reciprocal axes: (cart. coord. in units 2 pi/alat)
               b(1) = (  1.851932  1.069213  0.350817 )
               b(2) = ( -1.851932  1.069213  0.350817 )
               b(3) = ( -0.000000 -2.138427  0.350817 )

     PseudoPot. # 1 for Cr read from file:
     ./pseudo/cr_pbe_v1.5.uspp.F.UPF
     MD5 check sum: 0d52af634a40206e4dee301ad30da4bf
     Pseudo is Ultrasoft + core correction, Zval = 14.0
     Generated by new atomic code, or converted to UPF format
     Using radial grid of  857 points,  6 beta functions with:
                l(1) =   0
                l(2) =   0
                l(3) =   1
                l(4) =   1
                l(5) =   2
                l(6) =   2
     Q(r) pseudized with  8 coefficients,  rinner =    0.950   0.950   0.950
                                                       0.950   0.950

     PseudoPot. # 2 for Na read from file:
     ./pseudo/Na_ONCV_PBE-1.0.upf
     MD5 check sum: 8619a8fc970a30df18a75067eea56141
     Pseudo is Norm-conserving, Zval =  9.0
     Generated using ONCVPSP code by D. R. Hamann
     Using radial grid of  602 points,  4 beta functions with:
                l(1) =   0
                l(2) =   0
                l(3) =   1
                l(4) =   1

     PseudoPot. # 3 for O  read from file:
     ./pseudo/O.pbe-n-kjpaw_psl.0.1.UPF
     MD5 check sum: 3f94a2996a3169367d6eb21d9b593f20
     Pseudo is Projector augmented-wave + core cor, Zval =  6.0
     Generated using "atomic" code by A. Dal Corso  v.5.0.99 svn rev. 10869
     Shape of augmentation charge: BESSEL
     Using radial grid of 1095 points,  4 beta functions with:
                l(1) =   0
                l(2) =   0
                l(3) =   1
                l(4) =   1
     Q(r) pseudized with 0 coefficients

     atomic species   valence    mass     pseudopotential
        Cr            14.00    51.99600     Cr( 1.00)
        Na             9.00    22.98977     Na( 1.00)
        O              6.00    15.99940     O ( 1.00)

     12 Sym. Ops., with inversion, found

                                    s                        frac. trans.

      isym =  1     identity

 cryst.   s( 1) = (     1          0          0      )
                  (     0          1          0      )
                  (     0          0          1      )

 cart.    s( 1) = (  1.0000000  0.0000000  0.0000000 )
                  (  0.0000000  1.0000000 -0.0000000 )
                  ( -0.0000000  0.0000000  1.0000000 )

      isym =  2     180 deg rotation - cart. axis [1,0,0]

[...]

      isym =  3     120 deg rotation - cryst. axis [0,0,1]

[...]

      isym =  7     inversion

[...]

      isym =  8     inv. 180 deg rotation - cart. axis [1,0,0]

[...]

      isym =  9     inv. 120 deg rotation - cryst. axis [0,0,1]

[...]

 cryst.   s(10) = (     0          0         -1      )
                  (    -1          0          0      )
                  (     0         -1          0      )

 cart.    s(10) = (  0.5000000 -0.8660254 -0.0000000 )
                  (  0.8660254  0.5000000  0.0000000 )
                  ( -0.0000000 -0.0000000 -1.0000000 )

[...]

   Cartesian axes

     site n.     atom                  positions (alat units)
         1           Cr  tau(   1) = (   0.0000000   0.0000000   1.4252435  )
         2           Na  tau(   2) = (   0.0000000   0.0000000   2.8504869  )
         3           O   tau(   3) = (   0.0000000   0.0000000   0.6594884  )
         4           O   tau(   4) = (   0.0000000   0.0000000   2.1909986  )

   Crystallographic axes

     site n.     atom                  positions (cryst. coord.)
         1           Cr  tau(   1) = (  0.5000000  0.5000000  0.5000000  )
         2           Na  tau(   2) = (  1.0000000  1.0000000  1.0000000  )
         3           O   tau(   3) = (  0.2313599  0.2313599  0.2313599  )
         4           O   tau(   4) = (  0.7686401  0.7686401  0.7686401  )

     number of k points=    13  Gaussian smearing, width (Ry)=  0.1000
                       cart. coord. in units 2pi/alat
        k(    1) = (   0.0000000   0.0000000   0.0000000), wk =   0.0312500
        k(    2) = (  -0.0000000  -0.5346067   0.0877043), wk =   0.1875000
        k(    3) = (   0.0000000   1.0692135  -0.1754086), wk =   0.0937500
        k(    4) = (  -0.4629830  -0.2673034   0.1754086), wk =   0.1875000
        k(    5) = (  -0.4629830   1.3365168  -0.0877043), wk =   0.3750000
        k(    6) = (  -0.4629830   0.8019101   0.0000000), wk =   0.1875000
        k(    7) = (   0.9259660   0.5346067  -0.3508173), wk =   0.0937500
        k(    8) = (  -0.0000000   0.0000000   0.2631129), wk =   0.0625000
        k(    9) = (   0.0000000   1.6038202   0.0000000), wk =   0.1875000
        k(   10) = (   0.0000000   1.0692135   0.0877043), wk =   0.1875000
        k(   11) = (   1.3889490   0.8019101  -0.2631129), wk =   0.1875000
        k(   12) = (   1.3889490   0.2673034  -0.1754086), wk =   0.1875000
        k(   13) = (   0.0000000   0.0000000  -0.5262259), wk =   0.0312500

                       cryst. coord.
        k(    1) = (   0.0000000   0.0000000   0.0000000), wk =   0.0312500
        k(    2) = (  -0.0000000  -0.0000000   0.2500000), wk =   0.1875000
        k(    3) = (   0.0000000   0.0000000  -0.5000000), wk =   0.0937500
        k(    4) = (  -0.0000000   0.2500000   0.2500000), wk =   0.1875000
        k(    5) = (   0.0000000   0.2500000  -0.5000000), wk =   0.3750000
        k(    6) = (  -0.0000000   0.2500000  -0.2500000), wk =   0.1875000
        k(    7) = (   0.0000000  -0.5000000  -0.5000000), wk =   0.0937500
        k(    8) = (   0.2500000   0.2500000   0.2500000), wk =   0.0625000
        k(    9) = (   0.2500000   0.2500000  -0.5000000), wk =   0.1875000
        k(   10) = (   0.2500000   0.2500000  -0.2500000), wk =   0.1875000
        k(   11) = (   0.2500000  -0.5000000  -0.5000000), wk =   0.1875000
        k(   12) = (   0.2500000  -0.5000000  -0.2500000), wk =   0.1875000
        k(   13) = (  -0.5000000  -0.5000000  -0.5000000), wk =   0.0312500

SIRIUS version : 7.2.8
git hash       : 589ccf589dda66cbcce7b02683cba0c7a6e3f3ae
git branch     : heads/experimental/switch-fp32-to-fp64
build time     : 2021-10-08 15:54:50
start time     : Mon, 11 Oct 2021 12:32:33

page size (Kb)                : 4
number of pages               : 16466695

FFT context for density and potential
  comm size                             : 1
  plane wave cutoff                     : 31.622777
  grid size                             : 108 108 108   total : 1259712
  grid limits                           : -53 54   -53 54   -53 54
  number of G-vectors within the cutoff : 76152
  local number of G-vectors             : 76152
  number of G-shells                    : 12121

FFT context for coarse grid
  comm size                             : 1
  plane wave cutoff                     : 14.142136
  grid size                             : 50 50 50   total : 125000
  grid limits                           : -24 25   -24 25   -24 25
  number of G-vectors within the cutoff : 6788
  local number of G-vectors             : 6788
  number of G-shells                    : 1210

number of local G-vector blocks: 1

Unit cell
lattice vectors
  a1 :       2.8600891671       1.6512732506      10.0654319112
  a2 :      -2.8600891671       1.6512732506      10.0654319112
  a3 :       0.0000000000      -3.3025465012      10.0654319112
reciprocal lattice vectors
  b1 :       1.0984247238       0.6341758100       0.2080780160
  b2 :      -1.0984247238       0.6341758100       0.2080780160
  b3 :      -0.0000000000      -1.2683516199       0.2080780160

unit cell volume :       285.22145072 [a.u.^3]
1/sqrt(omega)    :         0.05921189
MT volume        : 0.000000 ( 0.00%)
IT volume        : 285.221451 (100.00%)

number of atom types : 3
type id : 0   symbol :      mt_radius : 206.524747, num_atoms: 1
type id : 1   symbol :      mt_radius :   6.010000, num_atoms: 1
type id : 2   symbol :      mt_radius :  99.043432, num_atoms: 2
total number of atoms : 4
number of symmetry classes : 3
number of PAW atoms : 2

atom id              position                    vector_field        type id    class id
     0      0.500000 0.500000 0.500000   0.000000 0.000000 0.000000        0           0
     1      1.000000 1.000000 1.000000   0.000000 0.000000 0.000000        1           1
     2      0.231360 0.231360 0.231360   0.000000 0.000000 0.000000        2           2
     3      0.768640 0.768640 0.768640   0.000000 0.000000 0.000000        2           2

class id : 0   atom id : 0
class id : 1   atom id : 1
class id : 2   atom id : 2 3

atom id              position (Cartesian, a.u.)
     0          0.000000000000     0.000000000000    15.098147866697
     1          0.000000000000     0.000000000000    30.196295733395
     2          0.000000000000    -0.000000000000     6.986211790170
     3         -0.000000000000    -0.000000000000    23.210083943413

[...]

minimum bond length:       3.837050868507

number of pseudo wave-functions: 18

space group number   : 166
international symbol : R-3m
Hall symbol          : -R 3 2"
space group transformation matrix :
    0.666667    -0.333333    -0.333333
    0.333333     0.333333    -0.666667
    0.333333     0.333333     0.333333
space group origin shift :
[...]
├ sirius::Band::initialize_subspace|kp                              208       2.19 s        1.05     100.00      10.38 ms       9.38 ms      13.32 ms
├ Eigensolver_lapack|zheevx                                        7278       2.10 s        1.00     100.00     302.82 us      13.81 us     912.34 us
├ sirius::Density::generate_rho_aug|sum                             238       1.92 s        0.92     100.00       7.97 ms       2.96 ms      14.08 ms
├ sirius::symmetrize|fpw|local                                      246       1.92 s        0.91     100.00       7.98 ms       5.98 ms      11.79 ms
├ sddk::Gvec_shells::remap_forward                                  246       1.80 s        0.86     100.00       7.21 ms       6.80 ms       9.98 ms
├ sddk::Gvec_shells::remap_backward                                 246       1.76 s        0.84     100.00       7.02 ms       6.64 ms      10.75 ms
├ sirius::Density::generate_rho_aug|gemm                            238       1.65 s        0.79     100.00       7.79 ms       2.12 ms      16.73 ms
├ sirius::Stress|vloc                                                 8       1.61 s        0.77     100.00     203.34 ms     190.24 ms     207.83 ms
├ sirius::K_point_set::find_band_occupancies                        119       1.53 s        0.73     100.00       6.24 ms       5.22 ms     104.26 ms
├ potinit                                                             2       1.50 s        0.72     100.00     751.10 ms     594.32 ms     907.89 ms
├ sirius::davidson|update_phi                                      3939       1.39 s        0.66     100.00     309.50 us       6.03 us       6.82 ms
├ sirius::Beta_projectors_base::inner                             10489       1.35 s        0.64     100.00      75.14 us      20.91 us       3.67 ms
├ sirius::Periodic_function::integrate                              135       1.32 s        0.63     100.00       9.72 ms       9.28 ms      11.41 ms
├ sddk::orthogonalize                                              7278       1.31 s        0.62     100.00     211.17 us      31.75 us       3.94 ms
├ sirius::Augmentation_operator::generate_pw_coeffs                  18       1.28 s        0.61     100.00      67.70 ms       7.76 ms     157.10 ms
├ setup_sirius                                                        2       1.28 s        0.61     100.00     637.79 ms     573.10 ms     702.47 ms
├ sirius::Force::calc_forces_us                                       8       1.28 s        0.61     100.00     159.36 ms     155.10 ms     162.60 ms
├ newd                                                                2       1.09 s        0.52     100.00     542.82 ms     525.70 ms     559.94 ms
├ sirius::Simulation_context::make_periodic_function                 58       1.02 s        0.49     100.00      17.77 ms      14.25 ms      19.45 ms
├ sirius::gradient                                                  135     941.27 ms       0.45     100.00       5.67 ms       5.48 ms      20.55 ms
├ sirius::Force::calc_forces_ewald                                    8     912.66 ms       0.44     100.00     113.62 ms     105.01 ms     119.97 ms
├ sirius::Simulation_context::initialize                              2     870.62 ms       0.42     100.00     435.31 ms     391.40 ms     479.22 ms
├ sddk::orthogonalize|transform                                    7278     856.30 ms       0.41     100.00     134.60 us      20.14 us       3.89 ms
├ qe|update                                                           6     840.13 ms       0.40     100.00     138.33 ms     134.02 ms     147.67 ms
├ sirius::Density::update                                            17     816.60 ms       0.39     100.00      49.15 ms      39.90 ms      52.43 ms
├ sirius::Density::generate_pseudo_core_charge_density               17     800.70 ms       0.38     100.00      48.22 ms      38.70 ms      51.74 ms
├ sirius::Stress|us|gemm                                            144     752.55 ms       0.36     100.00       5.16 ms       3.51 ms       7.38 ms
├ sirius::Density::initial_density                                    8     730.35 ms       0.35     100.00      91.94 ms      85.51 ms      94.65 ms
├ sirius::Stress|kin                                                  8     703.97 ms       0.34     100.00      88.35 ms      83.43 ms      92.34 ms
├ sirius::Potential::update                                           9     660.76 ms       0.32     100.00      78.50 ms      55.16 ms      80.35 ms
├ sirius::Potential::generate_local_potential                         9     646.93 ms       0.31     100.00      76.94 ms      53.61 ms      78.78 ms
├ sirius::Hamiltonian_k                                            1755     583.73 ms       0.28     100.00      16.85 us      11.83 us       4.56 ms
├ sirius::Local_operator::prepare_k                                1755     573.98 ms       0.27     100.00      11.53 us       8.14 us       4.55 ms
├ sirius::Non_local_functor::add_k_point                            208     564.55 ms       0.27     100.00       2.91 ms       1.27 ms       6.10 ms
├ sirius::Stress|nonloc                                               8     547.66 ms       0.26     100.00      67.54 ms      65.01 ms      78.37 ms
├ v_of_rho                                                            2     533.77 ms       0.25     100.00     266.89 ms     197.45 ms     336.33 ms
├ sirius::Density                                                    10     520.10 ms       0.25     100.00      51.89 ms      41.92 ms      56.31 ms
├ v_xc                                                                2     505.96 ms       0.24     100.00     252.98 ms     186.87 ms     319.09 ms
├ sirius::dot                                                       127     505.22 ms       0.24     100.00       3.41 ms       3.25 ms       8.45 ms
├ sirius::Force::calc_forces_vloc                                     8     456.98 ms       0.22     100.00      60.01 ms      40.91 ms      61.01 ms
├ sirius::Augmentation_operator_gvec_deriv                            8     426.84 ms       0.20     100.00      53.64 ms      51.61 ms      54.44 ms
├ sirius::Density::mixer_output                                     119     350.11 ms       0.17     100.00       3.00 ms       2.36 ms       3.40 ms
├ sddk::Gvec_shells                                                   9     343.47 ms       0.16     100.00      37.87 ms      36.78 ms      41.50 ms
├ sddk::Gvec::find_gvec_shells                                       18     331.93 ms       0.16     100.00      17.35 ms       2.47 ms      36.00 ms
├ sirius::Force::calc_forces_core                                     8     305.51 ms       0.15     100.00      36.98 ms      32.70 ms      49.11 ms
├ sirius::Stress|us|phase_fac                                        16     291.92 ms       0.14     100.00      18.30 ms      16.11 ms      20.24 ms
├ sirius::Force::calc_forces_scf_corr                                 8     253.80 ms       0.12     100.00      32.08 ms      24.38 ms      35.09 ms
├ sirius::Density::add_k_point_contribution_dm                     1547     232.65 ms       0.11     100.00     131.60 us     105.80 us       2.95 ms
├ sirius::Potential                                                   2     207.31 ms       0.10     100.00     103.66 ms      89.50 ms     117.81 ms
├ sirius::Periodic_function::add                                    254     205.19 ms       0.10     100.00     793.47 us     699.34 us       3.37 ms
├ sirius::Hamiltonian0                                              135     189.21 ms       0.09     100.00       1.06 ms     805.30 us      31.88 ms
├ sirius::Force::calc_forces_nonloc                                   8     180.67 ms       0.09     100.00      21.68 ms      20.49 ms      30.42 ms
├ sirius::Beta_projectors_base::generate                           1482     171.76 ms       0.08     100.00     108.23 us      92.15 us     403.22 us
├ sirius::Radial_integrals|atomic_wfs                                 8     157.74 ms       0.08     100.00      17.64 ms       1.30 us      47.43 ms
├ sirius_api::sirius_get_wave_functions                             104     143.67 ms       0.07     100.00       1.33 ms       1.24 ms       1.92 ms
├ sirius::K_point::update                                           234     137.58 ms       0.07     100.00     527.22 us     373.36 us       1.75 ms
├ sirius::K_point_set::initialize                                     2     137.07 ms       0.07     100.00      68.53 ms      60.20 ms      76.87 ms
├ sirius::K_point::initialize                                        52     136.15 ms       0.06     100.00       2.73 ms       1.93 ms       3.77 ms
├ sirius::Local_operator                                            135     135.54 ms       0.06     100.00     771.56 us     548.98 us      26.59 ms
├ sirius::Beta_projectors_strain_deriv::generate_pw_coefs_t         104     133.29 ms       0.06     100.00       1.27 ms     729.04 us       1.62 ms
├ sirius::Stress|ewald                                                8     127.44 ms       0.06     100.00      16.02 ms      15.45 ms      16.17 ms
├ sddk::Gvec::init                                                   56     124.64 ms       0.06     100.00     385.37 us     335.71 us      48.31 ms
├ sirius::Beta_projectors                                           234      90.26 ms       0.04     100.00     311.02 us     194.04 us       1.54 ms
├ sirius::K_point::generate_atomic_wave_functions                   208      88.18 ms       0.04     100.00     420.11 us     334.23 us     688.36 us
├ sirius::Density::mixer_input                                      119      85.96 ms       0.04     100.00     717.60 us     615.91 us     947.16 us
├ sirius::K_point::generate_gkvec                                    52      83.14 ms       0.04     100.00       1.62 ms       1.27 ms       2.34 ms
├ sirius::K_point_set::sync_band                                    238      80.56 ms       0.04     100.00      35.54 us      22.73 us       6.50 ms
├ Eigensolver_lapack|zhegvx                                         208      76.20 ms       0.04     100.00     349.40 us     319.65 us     670.77 us
├ sddk::orthogonalize|tmtrx                                        7278      75.94 ms       0.04     100.00       9.74 us       2.40 us      96.60 us
├ sirius::Simulation_context::init_atoms_to_grid_idx                  9      75.85 ms       0.04     100.00       7.05 ms       6.71 ms      14.75 ms
├ sirius::Density::symmetrize_density_matrix                        119      57.97 ms       0.03     100.00     462.38 us     429.90 us     806.74 us
├ sirius::Beta_projectors::generate_pw_coefs_t                      234      55.29 ms       0.03     100.00     184.26 us      96.32 us       1.13 ms
├ fft                                                                26      54.40 ms       0.03     100.00       2.12 ms       1.72 ms       2.56 ms
├ sirius::Band::initialize_subspace|kp|wf                           208      50.61 ms       0.02     100.00     243.13 us     207.90 us     316.45 us
├ sirius::Stress|har                                                  8      48.18 ms       0.02     100.00       6.03 ms       5.91 ms       6.14 ms
├ qe|setlocal                                                         2      44.33 ms       0.02     100.00      22.17 ms      14.15 ms      30.18 ms
├ sirius::Augmentation_operator_gvec_deriv::prepare                  16      42.95 ms       0.02     100.00       2.55 ms       1.45 ms       4.00 ms
├ sirius::Stress|us|prepare                                         144      41.83 ms       0.02     100.00     298.32 us     171.93 us     508.48 us
├ qe|paw_potential                                                    2      38.83 ms       0.02     100.00      19.41 ms      18.61 ms      20.21 ms
├ PAW_pot                                                             2      38.76 ms       0.02     100.00      19.38 ms      18.59 ms      20.17 ms
├ sirius::Q_operator::initialize                                    135      32.37 ms       0.02     100.00     166.85 us     154.60 us       2.67 ms
├ sirius::Unit_cell::update                                          11      27.77 ms       0.01     100.00       2.42 ms       2.28 ms       3.06 ms
├ v_h                                                                 2      27.69 ms       0.01     100.00      13.84 ms      10.50 ms      17.18 ms
├ qe|punch                                                            1      26.75 ms       0.01     100.00      26.75 ms      26.75 ms      26.75 ms
├ sirius::Unit_cell::get_symmetry                                    11      26.12 ms       0.01     100.00       2.26 ms       2.15 ms       2.87 ms
├ sirius::Crystal_symmetry                                           11      25.57 ms       0.01     100.00       2.20 ms       2.13 ms       2.84 ms
├ qe|set_vrs                                                          2      24.69 ms       0.01     100.00      12.34 ms       9.63 ms      15.05 ms
├ sirius::Crystal_symmetry|spg                                       11      22.35 ms       0.01     100.00       1.92 ms       1.84 ms       2.52 ms
├ sirius::D_operator::initialize                                    135      18.77 ms       0.01     100.00      87.53 us      80.04 us       2.63 ms
├ sddk::matrix_storage::remap_forward                              9033      18.56 ms       0.01     100.00       1.73 us     660.00 ns     215.98 us
├ interpolate                                                         2      13.72 ms       0.01     100.00       6.86 ms       6.58 ms       7.13 ms
├ sirius::Unit_cell::initialize                                       2       6.33 ms       0.00     100.00       3.17 ms       2.75 ms       3.58 ms
├ sddk::wf_inner|scale_back                                       20703       5.61 ms       0.00     100.00     156.00 ns      49.00 ns      27.21 us
├ sddk::matrix_storage::remap_backward                             7486       5.17 ms       0.00     100.00     578.00 ns      96.00 ns      51.97 us
├ qe|setup                                                            1       4.35 ms       0.00     100.00       4.35 ms       4.35 ms       4.35 ms
├ sddk::wf_inner|scale                                            20703       3.86 ms       0.00     100.00      78.00 ns      42.00 ns      22.73 us
├ sirius::Unit_cell::find_nearest_neighbours                         11       1.56 ms       0.00     100.00     152.41 us      53.18 us     180.92 us
├ sirius::Atom_type::init                                             6     925.40 us       0.00     100.00     149.82 us     116.95 us     228.35 us
├ ffts                                                                2     703.84 us       0.00     100.00     351.92 us     309.21 us     394.63 us
├ sirius::Force::symmetrize                                          48     683.46 us       0.00     100.00      14.04 us       5.83 us      31.41 us
├ sirius::Non_local_operator                                        270     468.55 us       0.00     100.00       1.24 us     267.00 ns      34.88 us
├ sirius::Beta_projectors_base::prepare                             208     345.25 us       0.00     100.00       1.15 us     444.00 ns      23.61 us
├ sirius::find_sym_atom                                             264     243.19 us       0.00     100.00     562.50 ns     440.00 ns      12.95 us
├ sirius::K_point::K_point                                           52     184.76 us       0.00     100.00       2.97 us       2.43 us      18.09 us
├ sirius::Crystal_symmetry|mag                                       11     169.75 us       0.00     100.00      14.39 us       9.78 us      27.51 us
├ sirius::Simulation_context::init_comm                               2     133.00 us       0.00     100.00      66.50 us      57.14 us      75.85 us
├ qe|paw_becsum                                                       2     131.01 us       0.00     100.00      65.50 us      61.88 us      69.12 us
├ sirius::initialize                                                  1     115.60 us       0.00     100.00     115.60 us     115.60 us     115.60 us
├ PAW_symme                                                           2      84.08 us       0.00     100.00      42.04 us      39.74 us      44.34 us
├ sirius::Beta_projectors_base::dismiss                             208      50.41 us       0.00     100.00      62.00 ns      40.00 ns      17.56 us
└ sirius::finalize                                                    1       7.07 us       0.00     100.00       7.07 us       7.07 us       7.07 us

Note: The following floating-point exceptions are signalling: IEEE_UNDERFLOW_FLAG IEEE_DENORMAL