     Program PWSCF v.6.8 starts on 11Oct2021 at 13:44: 9

     Reading input from aiida.in

     Current dimensions of program PWSCF are:
     Max number of different atomic species (ntypx) = 10
     Max number of k-points (npk) =  40000
     Max angular momentum in pseudopotentials (lmaxx) =  4
     file O.pbe-n-kjpaw_psl.0.1.UPF: wavefunction(s)  2P renormalized
     Message from routine setup:
     using ibrav=0 with symmetry is DISCOURAGED, use correct ibrav instead

     Subspace diagonalization in iterative solution of the eigenvalue problem:
     a serial algorithm will be used

     Using Slab Decomposition

     bravais-lattice index     =            0
     lattice parameter (alat)  =      10.5934  a.u.
     unit-cell volume          =     285.2215 (a.u.)^3
     number of atoms/cell      =            4
     number of atomic types    =            3
     number of electrons       =        35.00
     number of Kohn-Sham states=           22
     kinetic-energy cutoff     =      50.0000  Ry
     charge density cutoff     =    1000.0000  Ry
     scf convergence threshold =      1.0E-11
     mixing beta               =       0.7000
     number of iterations used =            8  plain     mixing
     energy convergence thresh.=      1.0E-04
     force convergence thresh. =      1.0E-03
     press convergence thresh. =      5.0E-01
     Exchange-correlation= SLA  PW   PBX  PBC
                           (   1   4   3   4   0   0   0)
     nstep                     =           50

     celldm(1)=  10.593382  celldm(2)=   0.000000  celldm(3)=   0.000000
     celldm(4)=   0.000000  celldm(5)=   0.000000  celldm(6)=   0.000000

     crystal axes: (cart. coord. in units of alat)
               a(1) = (   0.269988   0.155878   0.950162 )
               a(2) = (  -0.269988   0.155878   0.950162 )
               a(3) = (   0.000000  -0.311756   0.950162 )

     reciprocal axes: (cart. coord. in units 2 pi/alat)
               b(1) = (  1.851932  1.069213  0.350817 )
               b(2) = ( -1.851932  1.069213  0.350817 )
               b(3) = ( -0.000000 -2.138427  0.350817 )

     PseudoPot. # 1 for Cr read from file:
     ./pseudo/cr_pbe_v1.5.uspp.F.UPF
     MD5 check sum: 0d52af634a40206e4dee301ad30da4bf
     Pseudo is Ultrasoft + core correction, Zval = 14.0
     Generated by new atomic code, or converted to UPF format
     Using radial grid of  857 points,  6 beta functions with:
                l(1) =   0
                l(2) =   0
                l(3) =   1
                l(4) =   1
                l(5) =   2
                l(6) =   2
     Q(r) pseudized with  8 coefficients,  rinner =    0.950   0.950   0.950
                                                       0.950   0.950

     PseudoPot. # 2 for Na read from file:
     ./pseudo/Na_ONCV_PBE-1.0.upf
     MD5 check sum: 8619a8fc970a30df18a75067eea56141
     Pseudo is Norm-conserving, Zval =  9.0
     Generated using ONCVPSP code by D. R. Hamann
     Using radial grid of  602 points,  4 beta functions with:
                l(1) =   0
                l(2) =   0
                l(3) =   1
                l(4) =   1

     PseudoPot. # 3 for O  read from file:
     ./pseudo/O.pbe-n-kjpaw_psl.0.1.UPF
     MD5 check sum: 3f94a2996a3169367d6eb21d9b593f20
     Pseudo is Projector augmented-wave + core cor, Zval =  6.0
     Generated using "atomic" code by A. Dal Corso  v.5.0.99 svn rev. 10869
     Shape of augmentation charge: BESSEL
     Using radial grid of 1095 points,  4 beta functions with:
                l(1) =   0
                l(2) =   0
                l(3) =   1
                l(4) =   1
     Q(r) pseudized with 0 coefficients

     atomic species   valence    mass     pseudopotential
        Cr            14.00    51.99600     Cr( 1.00)
        Na             9.00    22.98977     Na( 1.00)
        O              6.00    15.99940     O ( 1.00)

     12 Sym. Ops., with inversion, found

                                    s                        frac. trans.

      isym =  1     identity

 cryst.   s( 1) = (     1          0          0      )
                  (     0          1          0      )
                  (     0          0          1      )

 cart.    s( 1) = (  1.0000000  0.0000000  0.0000000 )
                  (  0.0000000  1.0000000 -0.0000000 )
                  ( -0.0000000  0.0000000  1.0000000 )

      isym =  2     180 deg rotation - cart. axis [1,0,0]

[...]

      isym =  3     120 deg rotation - cryst. axis [0,0,1]

[...]

      isym =  6     180 deg rotation - cryst. axis [1,1,0]

[...]

      isym =  7     inversion

[...]

      isym =  8     inv. 180 deg rotation - cart. axis [1,0,0]

[...]

      isym =  9     inv. 120 deg rotation - cryst. axis [0,0,1]

 cryst.   s( 9) = (     0         -1          0      )
                  (     0          0         -1      )
                  (    -1          0          0      )

 cart.    s( 9) = (  0.5000000  0.8660254 -0.0000000 )
                  ( -0.8660254  0.5000000  0.0000000 )
                  (  0.0000000  0.0000000 -1.0000000 )

[...]

 cryst.   s(10) = (     0          0         -1      )
                  (    -1          0          0      )
                  (     0         -1          0      )

 cart.    s(10) = (  0.5000000 -0.8660254 -0.0000000 )
                  (  0.8660254  0.5000000  0.0000000 )
                  ( -0.0000000 -0.0000000 -1.0000000 )

[...]

      isym = 12     inv. 180 deg rotation - cryst. axis [1,1,0]

 cryst.   s(12) = (     0          0          1      )
                  (     0          1          0      )
                  (     1          0          0      )

 cart.    s(12) = (  0.5000000 -0.8660254  0.0000000 )
                  ( -0.8660254 -0.5000000 -0.0000000 )
                  ( -0.0000000 -0.0000000  1.0000000 )

   Cartesian axes

     site n.     atom                  positions (alat units)
         1           Cr  tau(   1) = (   0.0000000   0.0000000   1.4252435  )
         2           Na  tau(   2) = (   0.0000000   0.0000000   2.8504869  )
         3           O   tau(   3) = (   0.0000000   0.0000000   0.6594884  )
         4           O   tau(   4) = (   0.0000000   0.0000000   2.1909986  )

   Crystallographic axes

     site n.     atom                  positions (cryst. coord.)
         1           Cr  tau(   1) = (  0.5000000  0.5000000  0.5000000  )
         2           Na  tau(   2) = (  1.0000000  1.0000000  1.0000000  )
         3           O   tau(   3) = (  0.2313599  0.2313599  0.2313599  )
         4           O   tau(   4) = (  0.7686401  0.7686401  0.7686401  )

     number of k points=    13  Gaussian smearing, width (Ry)=  0.1000
                       cart. coord. in units 2pi/alat
        k(    1) = (   0.0000000   0.0000000   0.0000000), wk =   0.0312500
        k(    2) = (  -0.0000000  -0.5346067   0.0877043), wk =   0.1875000
        k(    3) = (   0.0000000   1.0692135  -0.1754086), wk =   0.0937500
        k(    4) = (  -0.4629830  -0.2673034   0.1754086), wk =   0.1875000
        k(    5) = (  -0.4629830   1.3365168  -0.0877043), wk =   0.3750000
        k(    6) = (  -0.4629830   0.8019101   0.0000000), wk =   0.1875000
        k(    7) = (   0.9259660   0.5346067  -0.3508173), wk =   0.0937500
        k(    8) = (  -0.0000000   0.0000000   0.2631129), wk =   0.0625000
        k(    9) = (   0.0000000   1.6038202   0.0000000), wk =   0.1875000
        k(   10) = (   0.0000000   1.0692135   0.0877043), wk =   0.1875000
        k(   11) = (   1.3889490   0.8019101  -0.2631129), wk =   0.1875000
        k(   12) = (   1.3889490   0.2673034  -0.1754086), wk =   0.1875000
        k(   13) = (   0.0000000   0.0000000  -0.5262259), wk =   0.0312500

                       cryst. coord.
        k(    1) = (   0.0000000   0.0000000   0.0000000), wk =   0.0312500
        k(    2) = (  -0.0000000  -0.0000000   0.2500000), wk =   0.1875000
        k(    3) = (   0.0000000   0.0000000  -0.5000000), wk =   0.0937500
        k(    4) = (  -0.0000000   0.2500000   0.2500000), wk =   0.1875000
        k(    5) = (   0.0000000   0.2500000  -0.5000000), wk =   0.3750000
        k(    6) = (  -0.0000000   0.2500000  -0.2500000), wk =   0.1875000
        k(    7) = (   0.0000000  -0.5000000  -0.5000000), wk =   0.0937500
        k(    8) = (   0.2500000   0.2500000   0.2500000), wk =   0.0625000
        k(    9) = (   0.2500000   0.2500000  -0.5000000), wk =   0.1875000
        k(   10) = (   0.2500000   0.2500000  -0.2500000), wk =   0.1875000
        k(   11) = (   0.2500000  -0.5000000  -0.5000000), wk =   0.1875000
        k(   12) = (   0.2500000  -0.5000000  -0.2500000), wk =   0.1875000
        k(   13) = (  -0.5000000  -0.5000000  -0.5000000), wk =   0.0312500

SIRIUS version : 7.2.8
git hash       : 589ccf589dda66cbcce7b02683cba0c7a6e3f3ae
git branch     : heads/experimental/switch-fp32-to-fp64
build time     : 2021-10-08 15:54:50
start time     : Mon, 11 Oct 2021 13:44:13

page size (Kb)                : 4
number of pages               : 16466695

FFT context for density and potential
  comm size                             : 1
  plane wave cutoff                     : 31.622777
  grid size                             : 108 108 108   total : 1259712
  grid limits                           : -53 54   -53 54   -53 54
  number of G-vectors within the cutoff : 76152
  local number of G-vectors             : 76152
  number of G-shells                    : 12121

FFT context for coarse grid
  comm size                             : 1
  plane wave cutoff                     : 14.142136
  grid size                             : 50 50 50   total : 125000
  grid limits                           : -24 25   -24 25   -24 25
  number of G-vectors within the cutoff : 6788
  local number of G-vectors             : 6788
  number of G-shells                    : 1210

number of local G-vector blocks: 1

Unit cell
lattice vectors
  a1 :       2.8600891671       1.6512732506      10.0654319112
  a2 :      -2.8600891671       1.6512732506      10.0654319112
  a3 :       0.0000000000      -3.3025465012      10.0654319112
reciprocal lattice vectors
  b1 :       1.0984247238       0.6341758100       0.2080780160
  b2 :      -1.0984247238       0.6341758100       0.2080780160
  b3 :      -0.0000000000      -1.2683516199       0.2080780160

unit cell volume :       285.22145072 [a.u.^3]
1/sqrt(omega)    :         0.05921189
MT volume        : 0.000000 ( 0.00%)
IT volume        : 285.221451 (100.00%)

number of atom types : 3
type id : 0   symbol :      mt_radius : 206.524747, num_atoms: 1
type id : 1   symbol :      mt_radius :   6.010000, num_atoms: 1
type id : 2   symbol :      mt_radius :  99.043432, num_atoms: 2
total number of atoms : 4
number of symmetry classes : 3
number of PAW atoms : 2

atom id              position                    vector_field        type id    class id
     0      0.500000 0.500000 0.500000   0.000000 0.000000 0.000000        0           0
     1      1.000000 1.000000 1.000000   0.000000 0.000000 0.000000        1           1
     2      0.231360 0.231360 0.231360   0.000000 0.000000 0.000000        2           2
[...]
├ sirius::K_point_set::find_band_occupancies                        130       2.35 s        0.66     100.00       6.10 ms       3.96 ms     122.24 ms
├ sirius::Band::initialize_subspace                                  18       2.24 s        0.63     100.00     125.36 ms     106.92 ms     166.42 ms
├ sirius::Band::initialize_subspace|kp                              234       2.23 s        0.63     100.00       9.44 ms       7.98 ms      45.98 ms
├ sirius::symmetrize|fpw|local                                      269       2.20 s        0.62     100.00       8.05 ms       6.12 ms      14.15 ms
├ sirius::Density::generate_rho_aug|sum                             260       2.09 s        0.59     100.00       8.13 ms       2.85 ms      15.78 ms
├ sddk::Gvec_shells::remap_forward                                  269       1.98 s        0.56     100.00       7.24 ms       6.87 ms       9.70 ms
├ sddk::Gvec_shells::remap_backward                                 269       1.91 s        0.54     100.00       7.05 ms       6.52 ms       9.84 ms
├ sirius::Density::generate_rho_aug|gemm                            260       1.88 s        0.53     100.00       7.90 ms       2.01 ms      16.34 ms
├ sirius::Stress|vloc                                                 9       1.85 s        0.52     100.00     209.45 ms     168.38 ms     225.40 ms
├ init_vloc                                                           1       1.55 s        0.44     100.00       1.55 s        1.55 s        1.55 s
├ sirius::Augmentation_operator::generate_pw_coeffs                  20       1.51 s        0.43     100.00      68.69 ms      10.66 ms     160.58 ms
├ sirius::Force::calc_forces_us                                       9       1.48 s        0.42     100.00     162.02 ms     154.51 ms     183.35 ms
├ sirius::Periodic_function::integrate                              148       1.47 s        0.42     100.00      10.03 ms       9.18 ms      11.02 ms
├ init_us_1                                                           1       1.34 s        0.38     100.00       1.34 s        1.34 s        1.34 s
├ sirius::Simulation_context::make_periodic_function                 65       1.18 s        0.33     100.00      18.30 ms      14.28 ms      19.79 ms
├ qe|update                                                           8       1.14 s        0.32     100.00     138.16 ms     132.49 ms     172.89 ms
├ sirius::gradient                                                  148       1.09 s        0.31     100.00       5.72 ms       5.50 ms      20.21 ms
├ sirius::Force::calc_forces_ewald                                    9       1.03 s        0.29     100.00     113.53 ms     101.93 ms     129.04 ms
├ sirius::Density::update                                            19     967.35 ms       0.27     100.00      51.01 ms      40.70 ms      59.06 ms
├ sirius::Density::generate_pseudo_core_charge_density               19     948.56 ms       0.27     100.00      50.15 ms      39.16 ms      58.54 ms
├ potinit                                                             1     863.61 ms       0.24     100.00     863.61 ms     863.61 ms     863.61 ms
├ sirius::Hamiltonian_k                                            1924     844.48 ms       0.24     100.00      16.90 us      10.70 us       4.13 ms
├ sirius::Density::initial_density                                    9     838.34 ms       0.24     100.00      92.78 ms      90.58 ms      96.28 ms
├ sirius::Non_local_functor::add_k_point                            234     835.17 ms       0.24     100.00       3.31 ms       1.17 ms       7.80 ms
├ sirius::Local_operator::prepare_k                                1924     833.00 ms       0.24     100.00      11.41 us       6.84 us       4.12 ms
├ sirius::Stress|us|gemm                                            162     825.09 ms       0.23     100.00       5.50 ms       3.35 ms       7.14 ms
├ sirius::Stress|kin                                                  9     793.11 ms       0.22     100.00      88.59 ms      82.82 ms      92.11 ms
├ sirius::Potential::update                                          10     773.01 ms       0.22     100.00      79.54 ms      55.88 ms      81.04 ms
├ sirius::Stress|nonloc                                               9     761.92 ms       0.22     100.00      91.64 ms      67.31 ms     102.25 ms
├ sirius::Potential::generate_local_potential                        10     757.75 ms       0.21     100.00      78.02 ms      54.34 ms      79.50 ms
├ setup_sirius                                                        1     683.92 ms       0.19     100.00     683.92 ms     683.92 ms     683.92 ms
├ sirius::dot                                                       139     591.19 ms       0.17     100.00       3.42 ms       3.12 ms      10.35 ms
├ sirius::Force::calc_forces_vloc                                     9     571.99 ms       0.16     100.00      62.95 ms      60.67 ms      71.16 ms
├ sirius::Density                                                    10     542.63 ms       0.15     100.00      53.05 ms      50.57 ms      61.12 ms
├ newd                                                                1     541.20 ms       0.15     100.00     541.20 ms     541.20 ms     541.20 ms
├ sirius::Augmentation_operator_gvec_deriv                            9     500.96 ms       0.14     100.00      54.70 ms      53.12 ms      62.51 ms
├ sirius::Simulation_context::initialize                              1     460.50 ms       0.13     100.00     460.50 ms     460.50 ms     460.50 ms
├ sirius::Density::mixer_output                                     130     425.81 ms       0.12     100.00       3.23 ms       2.43 ms       4.93 ms
├ sddk::Gvec_shells                                                  10     381.29 ms       0.11     100.00      37.79 ms      36.85 ms      40.93 ms
├ sddk::Gvec::find_gvec_shells                                       20     367.03 ms       0.10     100.00      18.12 ms       2.58 ms      34.90 ms
├ sirius::Stress|us|phase_fac                                        18     335.77 ms       0.10     100.00      18.33 ms      17.01 ms      20.64 ms
├ sirius::Force::calc_forces_core                                     9     332.63 ms       0.09     100.00      36.18 ms      32.79 ms      42.13 ms
├ sddk::orthogonalize|tmtrx                                       39580     319.50 ms       0.09     100.00       7.13 us     349.00 ns     506.12 us
├ v_of_rho                                                            1     305.25 ms       0.09     100.00     305.25 ms     305.25 ms     305.25 ms
├ sirius::Force::calc_forces_scf_corr                                 9     302.78 ms       0.09     100.00      33.29 ms      31.19 ms      35.98 ms
├ v_xc                                                                1     292.60 ms       0.08     100.00     292.60 ms     292.60 ms     292.60 ms
├ sirius::Force::calc_forces_nonloc                                   9     259.27 ms       0.07     100.00      25.43 ms      23.34 ms      36.40 ms
├ sirius::Density::add_k_point_contribution_dm                     1690     232.32 ms       0.07     100.00     101.24 us      78.12 us       8.38 ms
├ sirius::Periodic_function::add                                    278     231.65 ms       0.07     100.00     797.21 us     652.76 us       2.61 ms
├ sirius::K_point_set::sync_band                                    260     229.79 ms       0.07     100.00      36.31 us      15.64 us       7.10 ms
├ sirius::Beta_projectors_base::generate                           1664     199.14 ms       0.06     100.00     110.73 us      80.61 us     711.30 us
├ sirius::Hamiltonian0                                              148     162.81 ms       0.05     100.00       1.05 ms     681.51 us       6.27 ms
├ sirius_api::sirius_get_wave_functions                             117     160.23 ms       0.05     100.00       1.34 ms       1.24 ms       1.89 ms
├ sirius::K_point::update                                           260     155.03 ms       0.04     100.00     531.88 us     410.37 us       1.59 ms
├ sirius::Beta_projectors_strain_deriv::generate_pw_coefs_t         117     146.16 ms       0.04     100.00       1.27 ms     760.74 us       1.56 ms
├ sirius::Stress|ewald                                                9     139.37 ms       0.04     100.00      15.42 ms      15.14 ms      16.10 ms
├ sirius::Potential                                                   1     119.06 ms       0.03     100.00     119.06 ms     119.06 ms     119.06 ms
├ sirius::Local_operator                                            148     101.29 ms       0.03     100.00     605.00 us     422.32 us       5.58 ms
├ sirius::Radial_integrals|atomic_wfs                                 4      99.83 ms       0.03     100.00      19.71 ms       1.46 us      60.42 ms
├ sirius::Beta_projectors                                           260      99.59 ms       0.03     100.00     308.69 us     226.52 us       1.33 ms
├ sirius::Density::mixer_input                                      130      95.73 ms       0.03     100.00     696.10 us     558.26 us       1.33 ms
├ sirius::K_point::generate_atomic_wave_functions                   234      94.68 ms       0.03     100.00     401.20 us     341.92 us     568.50 us
├ sirius::K_point_set::initialize                                     1      90.45 ms       0.03     100.00      90.45 ms      90.45 ms      90.45 ms
├ sirius::K_point::initialize                                        26      89.06 ms       0.03     100.00       3.42 ms       3.11 ms       4.27 ms
├ sirius::Simulation_context::init_atoms_to_grid_idx                 10      86.35 ms       0.02     100.00       7.93 ms       6.96 ms      10.98 ms
├ sddk::Gvec::init                                                   28      62.90 ms       0.02     100.00     394.66 us     355.32 us      48.38 ms
├ sirius::Density::symmetrize_density_matrix                        130      60.44 ms       0.02     100.00     452.89 us     414.12 us     749.10 us
├ sirius::Beta_projectors::generate_pw_coefs_t                      260      58.33 ms       0.02     100.00     180.03 us     124.70 us     910.11 us
├ sirius::K_point::generate_gkvec                                    26      55.37 ms       0.02     100.00       2.07 ms       1.72 ms       3.09 ms
├ sirius::Stress|us|prepare                                         162      55.28 ms       0.02     100.00     310.21 us     167.88 us       2.84 ms
├ sirius::Stress|har                                                  9      55.18 ms       0.02     100.00       6.13 ms       5.89 ms       6.39 ms
├ sirius::Band::initialize_subspace|kp|wf                           234      54.99 ms       0.02     100.00     232.78 us     197.63 us     343.67 us
├ sirius::Augmentation_operator_gvec_deriv::prepare                  18      50.81 ms       0.01     100.00       2.75 ms       1.43 ms       4.19 ms
├ sddk::matrix_storage::remap_forward                             22559      45.32 ms       0.01     100.00       1.70 us     857.00 ns      36.29 us
├ Eigensolver_lapack|zhegvx                                         117      43.60 ms       0.01     100.00     358.30 us     321.54 us     767.18 us
├ sirius::Q_operator::initialize                                    148      38.42 ms       0.01     100.00     312.98 us     148.19 us     520.74 us
├ qe|setlocal                                                         1      32.35 ms       0.01     100.00      32.35 ms      32.35 ms      32.35 ms
├ qe|punch                                                            1      31.38 ms       0.01     100.00      31.38 ms      31.38 ms      31.38 ms
├ sirius::Unit_cell::update                                          11      30.31 ms       0.01     100.00       2.94 ms       2.38 ms       3.04 ms
├ sirius::Unit_cell::get_symmetry                                    11      28.30 ms       0.01     100.00       2.75 ms       2.18 ms       2.86 ms
├ sirius::Crystal_symmetry                                           11      27.65 ms       0.01     100.00       2.69 ms       2.12 ms       2.79 ms
├ fft                                                                13      27.47 ms       0.01     100.00       2.07 ms       1.78 ms       2.72 ms
├ sddk::wf_inner|scale_back                                       79628      24.54 ms       0.01     100.00     202.00 ns      47.00 ns      34.85 us
├ sirius::Crystal_symmetry|spg                                       11      24.46 ms       0.01     100.00       2.41 ms       1.82 ms       2.51 ms
├ sirius::D_operator::initialize                                    148      20.48 ms       0.01     100.00     166.35 us      80.87 us     233.66 us
├ qe|paw_potential                                                    1      19.51 ms       0.01     100.00      19.51 ms      19.51 ms      19.51 ms
├ PAW_pot                                                             1      19.48 ms       0.01     100.00      19.48 ms      19.48 ms      19.48 ms
├ Eigensolver_lapack|chegvx                                         117      17.71 ms       0.01     100.00     138.16 us     101.19 us       1.20 ms
├ sddk::matrix_storage::remap_backward                            20869      15.74 ms       0.00     100.00     626.00 ns     113.00 ns      41.79 us
├ sddk::wf_inner|scale                                            79628      14.64 ms       0.00     100.00     104.00 ns      42.00 ns      27.22 us
├ qe|set_vrs                                                          1      13.42 ms       0.00     100.00      13.42 ms      13.42 ms      13.42 ms
├ v_h                                                                 1      12.60 ms       0.00     100.00      12.60 ms      12.60 ms      12.60 ms
├ interpolate                                                         1       6.25 ms       0.00     100.00       6.25 ms       6.25 ms       6.25 ms
├ qe|setup                                                            1       4.25 ms       0.00     100.00       4.25 ms       4.25 ms       4.25 ms
├ davcio                                                             13       4.01 ms       0.00     100.00     304.65 us     257.51 us     374.78 us
├ sirius::Unit_cell::initialize                                       1       3.53 ms       0.00     100.00       3.53 ms       3.53 ms       3.53 ms
├ sirius::Unit_cell::find_nearest_neighbours                         11       1.90 ms       0.00     100.00     182.57 us      77.20 us     195.91 us
├ sirius::Force::symmetrize                                          54     865.41 us       0.00     100.00      15.61 us       6.12 us      31.57 us
├ sirius::Atom_type::init                                             3     486.25 us       0.00     100.00     168.52 us     122.61 us     195.12 us
├ sirius::Beta_projectors_base::prepare                             234     393.80 us       0.00     100.00       1.39 us     593.00 ns      18.38 us
├ sirius::Non_local_operator                                        296     379.25 us       0.00     100.00       1.14 us     125.00 ns      14.17 us
├ ffts                                                                1     300.59 us       0.00     100.00     300.59 us     300.59 us     300.59 us
├ sirius::Simulation_context::init_comm                               1     271.73 us       0.00     100.00     271.73 us     271.73 us     271.73 us
├ sirius::find_sym_atom                                             264     256.94 us       0.00     100.00     572.50 ns     447.00 ns      13.18 us
├ sirius::Crystal_symmetry|mag                                       11     196.11 us       0.00     100.00      17.27 us      10.94 us      25.77 us
├ sirius::initialize                                                  1     109.95 us       0.00     100.00     109.95 us     109.95 us     109.95 us
├ sirius::K_point::K_point                                           26      88.20 us       0.00     100.00       2.94 us       2.62 us       8.74 us
├ qe|paw_becsum                                                       1      64.50 us       0.00     100.00      64.50 us      64.50 us      64.50 us
├ PAW_symme                                                           1      48.16 us       0.00     100.00      48.16 us      48.16 us      48.16 us
├ sirius::Beta_projectors_base::dismiss                             234      40.37 us       0.00     100.00      73.00 ns      39.00 ns      18.98 us
└ sirius::finalize                                                    1      14.78 us       0.00     100.00      14.78 us      14.78 us      14.78 us

Note: The following floating-point exceptions are signalling: IEEE_UNDERFLOW_FLAG IEEE_DENORMAL
STOP 3