     Program PWSCF v.6.1 (svn rev. 13369) starts on  9May2017 at 10:40:28

     Current dimensions of program PWSCF are:
     Max number of different atomic species (ntypx) = 10
     Max number of k-points (npk) =  40000
     Max angular momentum in pseudopotentials (lmaxx) =  3

     Subspace diagonalization in iterative solution of the eigenvalue problem:
     one sub-group per band group will be used

     bravais-lattice index     =            0
     lattice parameter (alat)  =      21.3697  a.u.
     unit-cell volume          =   12916.0692 (a.u.)^3
     number of atoms/cell      =          108
     number of atomic types    =            2
     number of electrons       =       864.00
     number of Kohn-Sham states=          518
     kinetic-energy cutoff     =      45.0000  Ry
     charge density cutoff     =     360.0000  Ry
     convergence threshold     =      1.1E-06
     mixing beta               =       0.3500
     number of iterations used =            8  plain     mixing
     Exchange-correlation      = SLA  PW   PBE  PBE ( 1  4  3  4 0 0)

     celldm(1)=  21.369685  celldm(2)=   0.000000  celldm(3)=   0.000000
     celldm(4)=   0.000000  celldm(5)=   0.000000  celldm(6)=   0.000000

     crystal axes: (cart. coord. in units of alat)
               a(1) = (   1.000000   0.000000   0.000000 )
               a(2) = (   0.000000   0.936544   0.354886 )
               a(3) = (   0.000000   0.000000   1.413214 )

     reciprocal axes: (cart. coord. in units 2 pi/alat)
               b(1) = (  1.000000  0.000000  0.000000 )
               b(2) = (  0.000000  1.067756  0.000000 )
               b(3) = (  0.000000 -0.268135  0.707607 )

     PseudoPot. # 1 for Si read from file:
     ./pseudo/Si.pbe-n-rrkjus_psl.1.0.0.UPF
     MD5 check sum: d928fff27e2cf23ab01de9cd48acd62a
     Pseudo is Ultrasoft + core correction, Zval =  4.0
     Generated using "atomic" code by A. Dal Corso  v.5.1
     Using radial grid of 1141 points,  6 beta functions with:
                l(1) =   0
                l(2) =   0
                l(3) =   1
                l(4) =   1
                l(5) =   2
                l(6) =   2
     Q(r) pseudized with 0 coefficients

     PseudoPot. # 2 for Zr read from file:
     ./pseudo/Zr_pbe_v1.uspp.F.UPF
     MD5 check sum: 5db81b1e868ab7776c4564c113de050b
     Pseudo is Ultrasoft + core correction, Zval = 12.0
     Generated by new atomic code, or converted to UPF format
     Using radial grid of  887 points,  6 beta functions with:
                l(1) =   0
                l(2) =   0
                l(3) =   1
                l(4) =   1
                l(5) =   2
                l(6) =   2
     Q(r) pseudized with  6 coefficients,  rinner =    1.200   1.200   1.200
                                                       1.200   1.200

     atomic species   valence    mass     pseudopotential
        Si             4.00    28.08550     Si( 1.00)
        Zr            12.00    91.22400     Zr( 1.00)

     Starting magnetic structure
     atomic species   magnetization
        Si           0.000
        Zr           0.417

     No symmetry found

                                    s                        frac. trans.

      isym =  1     identity

 cryst.   s( 1) = (     1          0          0      )
                  (     0          1          0      )
                  (     0          0          1      )

 cart.    s( 1) = (  1.0000000  0.0000000  0.0000000 )
                  (  0.0000000  1.0000000  0.0000000 )
                  (  0.0000000  0.0000000  1.0000000 )

   Cartesian axes

     site n.     atom                  positions (alat units)
         1           Zr  tau(   1) = (   0.0766510   0.2654249   0.2397392  )
         2           Zr  tau(   2) = (   0.0823667   0.2728731   0.7053891  )
         3           Zr  tau(   3) = (   0.0867020   0.2723386   1.1771137  )
         4           Zr  tau(   4) = (   0.0893406   0.5805289   0.3527798  )
         5           Zr  tau(   5) = (   0.0886550   0.5767470   0.8313367  )
         6           Zr  tau(   6) = (   0.0861863   0.5851135   1.2961158  )
         7           Zr  tau(   7) = (   0.0799600   0.8974101   0.4750732  )
         8           Zr  tau(   8) = (   0.0863008   0.8917944   0.9519682  )
         9           Zr  tau(   9) = (   0.0889175   0.8897188   1.4125672  )
        10           Zr  tau(  10) = (   0.4125868   0.2706115   0.2335172  )
        11           Zr  tau(  11) = (   0.4189649   0.2633323   0.7032934  )
        12           Zr  tau(  12) = (   0.4203244   0.2630753   1.1753221  )
        13           Zr  tau(  13) = (   0.4186283   0.5798961   0.3494628  )
        14           Zr  tau(  14) = (   0.4201392   0.5840338   0.8308850  )
        15           Zr  tau(  15) = (   0.4216604   0.5833316   1.2957662  )
        16           Zr  tau(  16) = (   0.4107925   0.8932713   0.4711353  )
        17           Zr  tau(  17) = (   0.4107034   0.8880389   0.9476647  )
        18           Zr  tau(  18) = (   0.4213127   0.8900040   1.4218384  )
        19           Zr  tau(  19) = (   0.7521589   0.2646514   0.2442760  )
        20           Zr  tau(  20) = (   0.7532155   0.2607170   0.7104043  )
        21           Zr  tau(  21) = (   0.7436768   0.2673531   1.1769194  )
        22           Zr  tau(  22) = (   0.7482520   0.5772072   0.3495989  )
        23           Zr  tau(  23) = (   0.7453608   0.5766173   0.8225153  )
        24           Zr  tau(  24) = (   0.7536047   0.5781175   1.2923307  )
        25           Zr  tau(  25) = (   0.7455405   0.8956891   0.4713116  )
        26           Zr  tau(  26) = (   0.7559785   0.8917890   0.9418333  )
        27           Zr  tau(  27) = (   0.7444902   0.8950628   1.4144282  )
        28           Zr  tau(  28) = (   0.2483613   0.0508529   0.3473569  )
        29           Zr  tau(  29) = (   0.2481797   0.0431431   0.8290068  )
        30           Zr  tau(  30) = (   0.2468964   0.0497486   1.2981661  )
        31           Zr  tau(  31) = (   0.2515250   0.3600646   0.4761696  )
        32           Zr  tau(  32) = (   0.2474117   0.3603659   0.9467546  )
        33           Zr  tau(  33) = (   0.2554333   0.3529923   1.4115129  )
        34           Zr  tau(  34) = (   0.2469882   0.6642102   0.5913600  )
        35           Zr  tau(  35) = (   0.2519042   0.6629512   1.0581018  )
        36           Zr  tau(  36) = (   0.2568738   0.6681675   1.5294936  )
        37           Zr  tau(  37) = (   0.5786333   0.0492484   0.3479118  )
        38           Zr  tau(  38) = (   0.5763778   0.0462362   0.8216127  )
        39           Zr  tau(  39) = (   0.5776700   0.0433139   1.2973316  )
        40           Zr  tau(  40) = (   0.5891221   0.3536963   0.4683320  )
        41           Zr  tau(  41) = (   0.5797254   0.3514267   0.9410727  )
        42           Zr  tau(  42) = (   0.5862488   0.3544998   1.4061938  )
        43           Zr  tau(  43) = (   0.5891514   0.6700422   0.5840389  )
        44           Zr  tau(  44) = (   0.5869158   0.6723008   1.0536068  )
        45           Zr  tau(  45) = (   0.5887603   0.6719662   1.5262657  )
        46           Zr  tau(  46) = (   0.9165777   0.0433059   0.3446776  )
        47           Zr  tau(  47) = (   0.9100813   0.0450170   0.8199622  )
        48           Zr  tau(  48) = (   0.9127721   0.0508047   1.2958040  )
        49           Zr  tau(  49) = (   0.9155196   0.3632494   0.4657833  )
        50           Zr  tau(  50) = (   0.9164140   0.3524000   0.9457130  )
        51           Zr  tau(  51) = (   0.9195085   0.3635262   1.4094997  )
        52           Zr  tau(  52) = (   0.9119470   0.6644275   0.5883617  )
        53           Zr  tau(  53) = (   0.9116339   0.6657501   1.0621542  )
        54           Zr  tau(  54) = (   0.9166811   0.6764999   1.5321002  )
        55           Si  tau(  55) = (   0.2510402   0.1268503   0.1186292  )
        56           Si  tau(  56) = (   0.2453299   0.1359858   0.5978428  )
        57           Si  tau(  57) = (   0.2563462   0.1300817   1.0686342  )
        58           Si  tau(  58) = (   0.2567844   0.4417949   0.2422806  )
        59           Si  tau(  59) = (   0.2468897   0.4427387   0.7068621  )
        60           Si  tau(  60) = (   0.2550698   0.4400575   1.1874301  )
[...]
        94           Si  tau(  94) = (   0.4102116   0.4953194   0.5825548  )
        95           Si  tau(  95) = (   0.4177778   0.4876399   1.0597293  )
        96           Si  tau(  96) = (   0.4177659   0.4877275   1.5211900  )
        97           Si  tau(  97) = (   0.4120241   0.8038257   0.6969747  )
        98           Si  tau(  98) = (   0.4166754   0.8057598   1.1802935  )
        99           Si  tau(  99) = (   0.4209236   0.8099078   1.6416511  )
       100           Si  tau( 100) = (   0.7507143   0.1777618   0.4591532  )
       101           Si  tau( 101) = (   0.7485324   0.1792818   0.9434748  )
       102           Si  tau( 102) = (   0.7490400   0.1740027   1.4101827  )
       103           Si  tau( 103) = (   0.7540681   0.4984991   0.5831806  )
       104           Si  tau( 104) = (   0.7466013   0.4930535   1.0487742  )
       105           Si  tau( 105) = (   0.7553816   0.4883492   1.5273329  )
       106           Si  tau( 106) = (   0.7448746   0.8055558   0.6973588  )
       107           Si  tau( 107) = (   0.7545797   0.7997997   1.1716309  )
       108           Si  tau( 108) = (   0.7515926   0.7980526   1.6446687  )

   Crystallographic axes

     site n.     atom                  positions (cryst. coord.)
         1           Zr  tau(   1) = (  0.0766510  0.2834089  0.0984715  )
         2           Zr  tau(   2) = (  0.0823667  0.2913619  0.4259714  )
         3           Zr  tau(   3) = (  0.0867020  0.2907911  0.7599103  )
         4           Zr  tau(   4) = (  0.0893406  0.6198631  0.0939694  )
         5           Zr  tau(   5) = (  0.0886550  0.6158249  0.4336136  )
         6           Zr  tau(   6) = (  0.0861863  0.6247583  0.7602511  )
         7           Zr  tau(   7) = (  0.0799600  0.9582149  0.0955381  )
         8           Zr  tau(   8) = (  0.0863008  0.9522187  0.4344980  )
         9           Zr  tau(   9) = (  0.0889175  0.9500024  0.7609776  )
        10           Zr  tau(  10) = (  0.4125868  0.2889470  0.0926780  )
        11           Zr  tau(  11) = (  0.4189649  0.2811746  0.4270466  )
        12           Zr  tau(  12) = (  0.4203244  0.2809002  0.7611263  )
        13           Zr  tau(  13) = (  0.4186283  0.6191874  0.0917919  )
        14           Zr  tau(  14) = (  0.4201392  0.6236055  0.4313401  )
        15           Zr  tau(  15) = (  0.4216604  0.6228557  0.7604815  )
        16           Zr  tau(  16) = (  0.4107925  0.9537956  0.0938614  )
        17           Zr  tau(  17) = (  0.4107034  0.9482087  0.4324599  )
        18           Zr  tau(  18) = (  0.4213127  0.9503070  0.7674615  )
        19           Zr  tau(  19) = (  0.7521589  0.2825830  0.1018891  )
        20           Zr  tau(  20) = (  0.7532155  0.2783821  0.4327796  )
        21           Zr  tau(  21) = (  0.7436768  0.2854678  0.7611096  )
[...]
    12.5840  12.6145  12.6403  12.6423  12.6589  12.6654  12.6796  12.7003
    12.8064  12.8204  12.8406  12.8524  12.8612  12.8699  12.8770  12.9039
    12.9095  13.2110  13.2619  13.2996  13.3266  13.7464  13.7578  13.7786
    13.7835  13.8271  13.8463  13.8708  13.8823  13.9365  13.9601  13.9742
    13.9977  14.0086  14.0274  14.0412  14.0649  14.0788  14.0946  14.1125
    14.1433  14.1904  14.1917  14.3913  14.4536  14.4690  14.4895  14.5303
    14.5449  14.6208  14.6674  14.7321  14.7682  14.7905  14.8054  14.8657
    14.9640  14.9716  14.9986  15.0161  15.0650  15.0758  15.1065  15.1170
    15.1471  15.1475  15.1741  15.1809  15.1989  15.2289  15.2351  15.2417
    15.2672  15.2781  15.2800  15.2994  15.3221  15.3805  15.4247  15.4503
    15.4590  15.4998  15.5077  15.5724  15.6082  15.6234  15.6397  15.6725
    15.7085  15.7203  15.7254  15.7480  15.7532  15.7639  15.7784  15.7968
    15.8049  15.8201  15.8342  15.8474  15.8573  15.8650  15.8748  15.8860
    15.8966  15.9242  15.9313  15.9319  15.9500  15.9647

     occupation numbers
     1.0000   1.0000   1.0000   1.0000   1.0000   1.0000   1.0000   1.0000
     1.0000   1.0000   1.0000   1.0000   1.0000   1.0000   1.0000   1.0000
     1.0000   1.0000   1.0000   1.0000   1.0000   1.0000   1.0000   1.0000
     1.0000   1.0000   1.0000   1.0000   1.0000   1.0000   1.0000   1.0000
     1.0000   1.0000   1.0000   1.0000   1.0000   1.0000   1.0000   1.0000
     1.0000   1.0000   1.0000   1.0000   1.0000   1.0000   1.0000   1.0000
     1.0000   1.0000   1.0000   1.0000   1.0000   1.0000   1.0000   1.0000
     1.0000   1.0000   1.0000   1.0000   1.0000   1.0000   1.0000   1.0000
     1.0000   1.0000   1.0000   1.0000   1.0000   1.0000   1.0000   1.0000
     1.0000   1.0000   1.0000   1.0000   1.0000   1.0000   1.0000   1.0000
     1.0000   1.0000   1.0000   1.0000   1.0000   1.0000   1.0000   1.0000
     1.0000   1.0000   1.0000   1.0000   1.0000   1.0000   1.0000   1.0000
     1.0000   1.0000   1.0000   1.0000   1.0000   1.0000   1.0000   1.0000
     1.0000   1.0000   1.0000   1.0000   1.0000   1.0000   1.0000   1.0000
     1.0000   1.0000   1.0000   1.0000   1.0000   1.0000   1.0000   1.0000
     1.0000   1.0000   1.0000   1.0000   1.0000   1.0000   1.0000   1.0000
     1.0000   1.0000   1.0000   1.0000   1.0000   1.0000   1.0000   1.0000
     1.0000   1.0000   1.0000   1.0000   1.0000   1.0000   1.0000   1.0000
     1.0000   1.0000   1.0000   1.0000   1.0000   1.0000   1.0000   1.0000
     1.0000   1.0000   1.0000   1.0000   1.0000   1.0000   1.0000   1.0000
     1.0000   1.0000   1.0000   1.0000   1.0000   1.0000   1.0000   1.0000
     1.0000   1.0000   1.0000   1.0000   1.0000   1.0000   1.0000   1.0000
     1.0000   1.0000   1.0000   1.0000   1.0000   1.0000   1.0000   1.0000
     1.0000   1.0000   1.0000   1.0000   1.0000   1.0000   1.0000   1.0000
     1.0000   1.0000   1.0000   1.0000   1.0000   1.0000   1.0000   1.0000
     1.0000   1.0000   1.0000   1.0000   1.0000   1.0000   1.0000   1.0000
     1.0000   1.0000   1.0000   1.0000   1.0000   1.0000   1.0000   1.0000
     1.0000   1.0000   1.0000   1.0000   1.0000   1.0000   1.0000   1.0000
     1.0000   1.0000   1.0000   1.0000   1.0000   1.0000   1.0000   1.0000
     1.0000   1.0000   1.0000   1.0000   1.0000   1.0000   1.0000   1.0000
     1.0000   1.0000   1.0000   1.0000   1.0000   1.0000   1.0000   1.0000
     1.0000   1.0000   1.0000   1.0000   1.0000   1.0000   1.0000   1.0000
     1.0000   1.0000   1.0000   1.0000   1.0000   1.0000   1.0000   1.0000
     1.0000   1.0000   1.0000   1.0000   1.0000   1.0000   1.0000   1.0000
     1.0000   1.0000   1.0000   1.0000   1.0000   1.0000   1.0000   1.0000
     1.0000   1.0000   1.0000   1.0000   1.0000   1.0000   1.0000   1.0000
     1.0000   1.0000   1.0000   1.0000   1.0000   1.0000   1.0000   1.0000
     1.0000   1.0000   1.0000   1.0000   1.0000   1.0000   1.0000   1.0000
     1.0000   1.0000   1.0000   1.0000   1.0000   1.0000   1.0000   1.0000
     1.0000   1.0000   1.0000   1.0000   1.0000   1.0000   1.0000   1.0000
     1.0000   1.0000   1.0000   1.0000   1.0000   1.0000   1.0000   1.0000
     1.0000   1.0000   1.0000   1.0000   1.0000   1.0000   1.0000   1.0000
     1.0000   1.0000   1.0000   1.0000   1.0000   1.0000   1.0000   1.0000
     1.0000   1.0000   1.0000   1.0000   1.0000   1.0000   1.0000   1.0000
     1.0000   1.0000   1.0000   1.0000   1.0000   1.0000   1.0000   1.0000
     1.0000   1.0000   1.0000   1.0000   1.0000   1.0000   1.0000   1.0000
     1.0000   1.0000   1.0000   1.0000   1.0000   1.0000   1.0000   1.0000
     1.0000   1.0000   1.0000   1.0000   1.0000   1.0000   1.0000   1.0000
     1.0000   1.0000   1.0000   1.0000   1.0000   1.0000   1.0000   1.0000
     1.0000   1.0000   1.0000   1.0000   1.0000   1.0000   1.0000   1.0000
     1.0000   1.0000   1.0000   1.0000   1.0000   1.0000   1.0000   1.0000
     1.0000   1.0001   1.0001   1.0001   1.0002   1.0002   1.0003   1.0004
     1.0024   1.0030   1.0040   1.0048   1.0054   1.0061   1.0067   1.0095
     1.0101   1.0833   1.0717   1.0468   1.0189   0.1142   0.1018   0.0817
     0.0775   0.0469   0.0370   0.0270   0.0232   0.0108   0.0075   0.0060
     0.0041   0.0034   0.0025   0.0020   0.0013   0.0010   0.0007   0.0005
     0.0003   0.0001   0.0001   0.0000   0.0000   0.0000   0.0000   0.0000
     0.0000   0.0000   0.0000   0.0000   0.0000   0.0000   0.0000   0.0000
     0.0000   0.0000   0.0000   0.0000   0.0000   0.0000   0.0000   0.0000
     0.0000   0.0000   0.0000   0.0000   0.0000   0.0000   0.0000   0.0000
     0.0000   0.0000   0.0000   0.0000   0.0000   0.0000   0.0000   0.0000
     0.0000   0.0000   0.0000   0.0000   0.0000   0.0000   0.0000   0.0000
     0.0000   0.0000   0.0000   0.0000   0.0000   0.0000   0.0000   0.0000
     0.0000   0.0000   0.0000   0.0000   0.0000   0.0000   0.0000   0.0000
     0.0000   0.0000   0.0000   0.0000   0.0000   0.0000

[...]

          k =-0.5000 0.0000 0.0000 ( 65826 PWs)   bands (ev):

[...]

 ------ SPIN DOWN ----------

[...]

          k =-0.5000-0.6411 0.2830 ( 65872 PWs)   bands (ev):

[...]

          k = 0.3333 0.6411-0.2830 ( 65863 PWs)   bands (ev):

   -35.2001 -35.1927 -35.1819 -35.1798 -35.1660 -35.1641 -35.1627 -35.1575
   -35.1556 -35.1519 -35.1489 -35.1461 -35.1445 -35.1417 -35.1407 -35.1376
   -35.1334 -35.1332 -35.1310 -35.1282 -35.1255 -35.1233 -35.1217 -35.1197
   -35.1176 -35.1167 -35.1148 -35.1141 -35.1129 -35.1116 -35.1076 -35.1039
   -35.0996 -35.0992 -35.0968 -35.0933 -35.0919 -35.0898 -35.0835 -35.0807
   -35.0779 -35.0761 -35.0753 -35.0745 -35.0734 -35.0713 -35.0684 -35.0655
   -35.0597 -35.0517 -35.0455 -35.0425 -35.0249 -35.0132 -13.4480 -13.4429
   -13.4399 -13.4388 -13.4335 -13.4260 -13.4237 -13.4212 -13.4179 -13.4149
   -13.4139 -13.4122 -13.4088 -13.4056 -13.4044 -13.4008 -13.3989 -13.3977
   -13.3943 -13.3917 -13.3906 -13.3890 -13.3866 -13.3827 -13.3809 -13.3789
   -13.3778 -13.3758 -13.3730 -13.3710 -13.3702 -13.3662 -13.3645 -13.3624
   -13.3580 -13.3562 -13.3516 -13.3470 -13.3454 -13.3373 -13.3247 -13.3229
   -13.3171 -13.3116 -13.3074 -13.3050 -13.3026 -13.2988 -13.2967 -13.2956
   -13.2923 -13.2903 -13.2864 -13.2830 -13.2782 -13.2757 -13.2731 -13.2710
   -13.2695 -13.2674 -13.2632 -13.2610 -13.2584 -13.2537 -13.2506 -13.2491
   -13.2476 -13.2436 -13.2393 -13.2359 -13.2356 -13.2327 -13.2306 -13.2288
   -13.2266 -13.2249 -13.2225 -13.2194 -13.2169 -13.2160 -13.2125 -13.2109
   -13.2084 -13.2072 -13.2019 -13.1984 -13.1961 -13.1938 -13.1908 -13.1897
   -13.1883 -13.1858 -13.1844 -13.1819 -13.1793 -13.1782 -13.1752 -13.1708
   -13.1687 -13.1673 -13.1654 -13.1616 -13.1603 -13.1580 -13.1557 -13.1518
   -13.1502 -13.1468 -13.1441 -13.1412 -13.1389 -13.1362 -13.1343 -13.1299
   -13.1282 -13.1267 -13.1232 -13.1211 -13.1207 -13.1175 -13.1146 -13.1108
   -13.1097 -13.1084 -13.1050 -13.1035 -13.1007 -13.0995 -13.0969 -13.0947
   -13.0912 -13.0891 -13.0875 -13.0848 -13.0833 -13.0810 -13.0786 -13.0776
   -13.0756 -13.0703 -13.0683 -13.0659 -13.0619 -13.0604 -13.0571 -13.0540
   -13.0510 -13.0487 -13.0467 -13.0430 -13.0403 -13.0359 -13.0339 -13.0284
   -13.0264 -13.0252 -13.0200 -13.0150 -13.0123 -13.0054 -12.9991 -12.9777
     2.5988   2.6436   2.7573   2.8530   2.9397   3.0143   3.0401   3.0596
     3.1619   3.2292   3.3817   3.4158   3.4924   3.5309   3.6281   3.7343
     3.7529   3.9141   4.3758   4.4013   4.5042   4.5788   4.6836   4.6949
     4.7275   4.7465   4.8415   5.2812   5.3130   5.3797   5.3983   5.4267
     5.4809   5.5088   5.5999   5.6615   6.4203   6.4875   6.6371   6.6743
     6.7015   6.7545   6.7741   6.8192   6.8445   6.8670   6.9506   6.9660
     7.0053   7.0596   7.0924   7.4758   7.6269   7.7679   8.1931   8.4120
     8.5310   8.5650   8.5796   8.6044   8.6364   8.6842   8.7243   8.7425
     8.8200   8.8449   8.9588   9.0958   9.1710   9.2369   9.2443   9.3360
     9.3803   9.4311   9.4368   9.4626   9.4969   9.5381   9.5656   9.5918
     9.6092   9.6211   9.6590   9.6871   9.6985   9.7347   9.7580   9.7880
     9.8320   9.9296   9.9509   9.9606   9.9862  10.0212  10.0340  10.0905
    10.0989  10.1058  10.1263  10.1429  10.1503  10.1821  10.1945  10.2150
    10.2233  10.2491  10.2586  10.2812  10.2967  10.3184  10.3451  10.3557
    10.4162  10.4255  10.4491  10.4874  10.5148  10.5899  10.6208  10.6324
    10.6563  10.6645  10.6755  10.6941  10.7048  10.7196  10.7305  10.7498
    10.7634  10.7859  10.8270  10.8449  10.8863  10.8894  10.9493  10.9644
    10.9962  11.0019  11.0312  11.0601  11.0781  11.0911  11.1185  11.1434
    11.1772  11.1919  11.2491  11.2845  11.3162  11.4172  11.5058  11.5241
    11.5369  11.5524  11.5763  11.5928  11.6068  11.6166  11.6367  11.6513
    11.7294  11.7685  11.7891  11.8575  11.8830  11.9323  11.9381  11.9790
    12.0430  12.0576  12.0657  12.0748  12.1021  12.1149  12.1445  12.1614
    12.1895  12.2011  12.2304  12.2683  12.2870  12.2991  12.3129  12.3229
    12.3499  12.3598  12.3853  12.3890  12.4187  12.4705  12.5211  12.5832
    12.6275  12.6701  12.6904  12.7148  12.7416  12.7749  12.7812  12.8043
    12.8170  12.8852  12.9858  13.0102  13.0263  13.0651  13.0981  13.1385
    13.1778  13.2271  13.3340  13.3786  13.4107  13.4483  13.4819  13.5210
    13.6087  13.6285  13.7594  13.7830  13.8213  13.8388  13.8500  13.8934
    13.9224  13.9766  14.0289  14.0380  14.0737  14.1004  14.1978  14.2169
    14.2947  14.3420  14.3624  14.4242  14.4515  14.4699  14.5407  14.5563
    14.5945  14.6099  14.6339  14.6506  14.6851  14.6888  14.7803  14.8044
    14.8366  14.8594  14.9017  14.9203  14.9491  14.9823  15.0057  15.0220
    15.0393  15.0534  15.0762  15.0989  15.1018  15.1315  15.1867  15.2482
    15.2558  15.2976  15.3400  15.3757  15.3861  15.4107  15.4670  15.5299
    15.5630  15.5958  15.6091  15.6620  15.6918  15.7169  15.7231  15.7586
    15.7724  15.8376  15.8478  15.8939  15.9145  15.9386  15.9625  15.9704
    15.9955  16.0049  16.0139  16.0257  16.0606  16.0749  16.1036  16.1143
    16.1321  16.1541  16.1807  16.1979  16.2162  16.2275

     occupation numbers
     1.0000   1.0000   1.0000   1.0000   1.0000   1.0000   1.0000   1.0000
     1.0000   1.0000   1.0000   1.0000   1.0000   1.0000   1.0000   1.0000
     1.0000   1.0000   1.0000   1.0000   1.0000   1.0000   1.0000   1.0000
     1.0000   1.0000   1.0000   1.0000   1.0000   1.0000   1.0000   1.0000
     1.0000   1.0000   1.0000   1.0000   1.0000   1.0000   1.0000   1.0000
     1.0000   1.0000   1.0000   1.0000   1.0000   1.0000   1.0000   1.0000
     1.0000   1.0000   1.0000   1.0000   1.0000   1.0000   1.0000   1.0000
     1.0000   1.0000   1.0000   1.0000   1.0000   1.0000   1.0000   1.0000
     1.0000   1.0000   1.0000   1.0000   1.0000   1.0000   1.0000   1.0000
     1.0000   1.0000   1.0000   1.0000   1.0000   1.0000   1.0000   1.0000
     1.0000   1.0000   1.0000   1.0000   1.0000   1.0000   1.0000   1.0000
     1.0000   1.0000   1.0000   1.0000   1.0000   1.0000   1.0000   1.0000
     1.0000   1.0000   1.0000   1.0000   1.0000   1.0000   1.0000   1.0000
     1.0000   1.0000   1.0000   1.0000   1.0000   1.0000   1.0000   1.0000
     1.0000   1.0000   1.0000   1.0000   1.0000   1.0000   1.0000   1.0000
     1.0000   1.0000   1.0000   1.0000   1.0000   1.0000   1.0000   1.0000
     1.0000   1.0000   1.0000   1.0000   1.0000   1.0000   1.0000   1.0000
     1.0000   1.0000   1.0000   1.0000   1.0000   1.0000   1.0000   1.0000
     1.0000   1.0000   1.0000   1.0000   1.0000   1.0000   1.0000   1.0000
     1.0000   1.0000   1.0000   1.0000   1.0000   1.0000   1.0000   1.0000
     1.0000   1.0000   1.0000   1.0000   1.0000   1.0000   1.0000   1.0000
     1.0000   1.0000   1.0000   1.0000   1.0000   1.0000   1.0000   1.0000
     1.0000   1.0000   1.0000   1.0000   1.0000   1.0000   1.0000   1.0000
     1.0000   1.0000   1.0000   1.0000   1.0000   1.0000   1.0000   1.0000
     1.0000   1.0000   1.0000   1.0000   1.0000   1.0000   1.0000   1.0000
     1.0000   1.0000   1.0000   1.0000   1.0000   1.0000   1.0000   1.0000
     1.0000   1.0000   1.0000   1.0000   1.0000   1.0000   1.0000   1.0000
     1.0000   1.0000   1.0000   1.0000   1.0000   1.0000   1.0000   1.0000
     1.0000   1.0000   1.0000   1.0000   1.0000   1.0000   1.0000   1.0000
     1.0000   1.0000   1.0000   1.0000   1.0000   1.0000   1.0000   1.0000
     1.0000   1.0000   1.0000   1.0000   1.0000   1.0000   1.0000   1.0000
     1.0000   1.0000   1.0000   1.0000   1.0000   1.0000   1.0000   1.0000
     1.0000   1.0000   1.0000   1.0000   1.0000   1.0000   1.0000   1.0000
     1.0000   1.0000   1.0000   1.0000   1.0000   1.0000   1.0000   1.0000
     1.0000   1.0000   1.0000   1.0000   1.0000   1.0000   1.0000   1.0000
     1.0000   1.0000   1.0000   1.0000   1.0000   1.0000   1.0000   1.0000
     1.0000   1.0000   1.0000   1.0000   1.0000   1.0000   1.0000   1.0000
     1.0000   1.0000   1.0000   1.0000   1.0000   1.0000   1.0000   1.0000
     1.0000   1.0000   1.0000   1.0000   1.0000   1.0000   1.0000   1.0000
     1.0000   1.0000   1.0000   1.0000   1.0000   1.0000   1.0000   1.0000
     1.0000   1.0000   1.0000   1.0000   1.0000   1.0000   1.0000   1.0000
     1.0000   1.0000   1.0000   1.0000   1.0000   1.0000   1.0000   1.0000
     1.0000   1.0000   1.0000   1.0000   1.0000   1.0000   1.0000   1.0000
     1.0000   1.0000   1.0000   1.0000   1.0000   1.0000   1.0000   1.0000
     1.0000   1.0000   1.0000   1.0000   1.0000   1.0000   1.0000   1.0000
     1.0000   1.0000   1.0000   1.0000   1.0000   1.0000   1.0000   1.0000
     1.0000   1.0000   1.0000   1.0000   1.0000   1.0000   1.0000   1.0000
     1.0000   1.0000   1.0000   1.0000   1.0000   1.0000   1.0000   1.0000
     1.0000   1.0000   1.0000   1.0000   1.0000   1.0000   1.0000   1.0000
     1.0000   1.0000   1.0000   1.0000   1.0000   1.0000   1.0000   1.0000
     1.0000   1.0000   1.0000   1.0000   1.0000   1.0000   1.0000   1.0000
     1.0001   1.0002   1.0003   1.0005   1.0008   1.0015   1.0016   1.0023
     1.0028   1.0074   1.0238   1.0300   1.0346   1.0470   1.0583   1.0715
     1.0808   1.0819   1.0098   0.9399   0.8751   0.7863   0.6981   0.5907
     0.3594   0.3134   0.1001   0.0779   0.0503   0.0407   0.0354   0.0199
     0.0132   0.0058   0.0024   0.0021   0.0011   0.0007   0.0001   0.0001
     0.0000   0.0000   0.0000   0.0000   0.0000   0.0000   0.0000   0.0000
     0.0000   0.0000   0.0000   0.0000   0.0000   0.0000   0.0000   0.0000
     0.0000   0.0000   0.0000   0.0000   0.0000   0.0000   0.0000   0.0000
     0.0000   0.0000   0.0000   0.0000   0.0000   0.0000   0.0000   0.0000
     0.0000   0.0000   0.0000   0.0000   0.0000   0.0000   0.0000   0.0000
     0.0000   0.0000   0.0000   0.0000   0.0000   0.0000   0.0000   0.0000
     0.0000   0.0000   0.0000   0.0000   0.0000   0.0000   0.0000   0.0000
     0.0000   0.0000   0.0000   0.0000   0.0000   0.0000   0.0000   0.0000
     0.0000   0.0000   0.0000   0.0000   0.0000   0.0000

     the Fermi energy is    13.5919 ev

!    total energy              =   -5978.17063965 Ry
     Harris-Foulkes estimate   =   -5978.17063968 Ry
     estimated scf accuracy    <       0.00000092 Ry

     The total energy is the sum of the following terms:

     one-electron contribution =    -897.57183125 Ry
     hartree contribution      =     839.49448667 Ry
     xc contribution           =   -1301.02694265 Ry
     ewald contribution        =   -4619.08256585 Ry
     smearing contrib. (-TS)   =       0.01621343 Ry

     total magnetization       =    -0.01 Bohr mag/cell
     absolute magnetization    =     0.03 Bohr mag/cell

     convergence has been achieved in  30 iterations

     Writing output data file aiida.save

     General routines

     Parallel routines

   This run was terminated on:  10:59: 0   9May2017

   JOB DONE.