     Program PWSCF v.6.5 starts on 10Mar2020 at 15:18: 5

     R & G space division:  proc/nbgrp/npool/nimage =       9
     Reading input from pw.in
     Message from routine read_cards :
     DEPRECATED: no units specified in CELL_PARAMETERS card
Warning: card 1 1 1  0 0 0 ignored

     Current dimensions of program PWSCF are:
     Max number of different atomic species (ntypx) = 10
     Max number of k-points (npk) =  40000
     Max angular momentum in pseudopotentials (lmaxx) =  3
     Message from routine cell_base_init:
     DEPRECATED: use true lattice parameter, not A to a.u. conversion factor

     gamma-point specific algorithms are used

     Message from routine setup:
     using ibrav=0 with symmetry is DISCOURAGED, use correct ibrav instead

     bravais-lattice index     =            0
     lattice parameter (alat)  =       1.0000  a.u.
     unit-cell volume          =   69174.1805 (a.u.)^3
     number of atoms/cell      =          512
     number of atomic types    =            2
     number of electrons       =      2058.00
     number of Kohn-Sham states=         1235
     kinetic-energy cutoff     =      40.0000  Ry
     charge density cutoff     =     600.0000  Ry
     convergence threshold     =      1.0E-10
     mixing beta               =       0.7000
     number of iterations used =            8  plain     mixing
     Exchange-correlation= SLA  PZ   NOGX NOGC
                           (   1   1   0   0   0   0   0)

     celldm(1)=   1.000000  celldm(2)=   0.000000  celldm(3)=   0.000000
     celldm(4)=   0.000000  celldm(5)=   0.000000  celldm(6)=   0.000000

     crystal axes: (cart. coord. in units of alat)
               a(1) = (  41.050143   0.000000   0.000000 )
               a(2) = (   0.000000  41.050143   0.000000 )
               a(3) = (   0.000000   0.000000  41.050143 )

     reciprocal axes: (cart. coord. in units 2 pi/alat)
               b(1) = (  0.024360  0.000000  0.000000 )
               b(2) = (  0.000000  0.024360  0.000000 )
               b(3) = (  0.000000  0.000000  0.024360 )

     PseudoPot. # 1 for Ge read from file:
     ./ge_lda_v1.uspp.F.UPF
     MD5 check sum: 575f587c0f86b3eee266efe92ef02c15
     Pseudo is Ultrasoft + core correction, Zval = 14.0
     Generated by new atomic code, or converted to UPF format
     Using radial grid of  873 points,  6 beta functions with:
                l(1) =   0
                l(2) =   0
                l(3) =   1
                l(4) =   1
                l(5) =   2
                l(6) =   2
     Q(r) pseudized with  8 coefficients,  rinner =    1.400   1.400   1.400
                                                       1.400   1.400

     PseudoPot. # 2 for Si read from file:
     ./si_lda_v1.uspp.F.UPF
     MD5 check sum: ca10e49b2835512e91ee5100d37237e0
     Pseudo is Ultrasoft + core correction, Zval =  4.0
     Generated by new atomic code, or converted to UPF format
     Using radial grid of  899 points,  6 beta functions with:
                l(1) =   0
                l(2) =   0
                l(3) =   1
                l(4) =   1
                l(5) =   2
                l(6) =   2
     Q(r) pseudized with  8 coefficients,  rinner =    0.900   0.900   0.900
                                                       0.900   0.900

     atomic species   valence    mass     pseudopotential
        Ge            14.00    72.61000     Ge( 1.00)
        Si             4.00    28.08550     Si( 1.00)

     24 Sym. Ops. (no inversion) found

   Cartesian axes

     site n.     atom                  positions (alat units)
         1           Ge  tau(   1) = (   0.0000000   0.0000000   0.0000000  )
         2           Si  tau(   2) = (  20.5250715  20.5250715  20.5250715  )
         3           Si  tau(   3) = (  20.5250715  20.5250715  30.7876073  )
         4           Si  tau(   4) = (  20.5250715  20.5250715   0.0000000  )
         5           Si  tau(   5) = (  20.5250715  20.5250715  10.2625357  )
         6           Si  tau(   6) = (  20.5250715  30.7876073  20.5250715  )
         7           Si  tau(   7) = (  20.5250715  30.7876073  30.7876073  )
         8           Si  tau(   8) = (  20.5250715  30.7876073   0.0000000  )
         9           Si  tau(   9) = (  20.5250715  30.7876073  10.2625357  )
        10           Si  tau(  10) = (  20.5250715   0.0000000  20.5250715  )
        11           Si  tau(  11) = (  20.5250715   0.0000000  30.7876073  )
        12           Si  tau(  12) = (  20.5250715   0.0000000   0.0000000  )
        13           Si  tau(  13) = (  20.5250715   0.0000000  10.2625357  )
        14           Si  tau(  14) = (  20.5250715  10.2625357  20.5250715  )
        15           Si  tau(  15) = (  20.5250715  10.2625357  30.7876073  )
        16           Si  tau(  16) = (  20.5250715  10.2625357   0.0000000  )
        17           Si  tau(  17) = (  20.5250715  10.2625357  10.2625357  )
        18           Si  tau(  18) = (  30.7876073  20.5250715  20.5250715  )
        19           Si  tau(  19) = (  30.7876073  20.5250715  30.7876073  )
        20           Si  tau(  20) = (  30.7876073  20.5250715   0.0000000  )
        21           Si  tau(  21) = (  30.7876073  20.5250715  10.2625357  )
        22           Si  tau(  22) = (  30.7876073  30.7876073  20.5250715  )
        23           Si  tau(  23) = (  30.7876073  30.7876073  30.7876073  )
        24           Si  tau(  24) = (  30.7876073  30.7876073   0.0000000  )
        25           Si  tau(  25) = (  30.7876073  30.7876073  10.2625357  )
        26           Si  tau(  26) = (  30.7876073   0.0000000  20.5250715  )
        27           Si  tau(  27) = (  30.7876073   0.0000000  30.7876073  )
        28           Si  tau(  28) = (  30.7876073   0.0000000   0.0000000  )
        29           Si  tau(  29) = (  30.7876073   0.0000000  10.2625357  )
        30           Si  tau(  30) = (  30.7876073  10.2625357  20.5250715  )
        31           Si  tau(  31) = (  30.7876073  10.2625357  30.7876073  )
        32           Si  tau(  32) = (  30.7876073  10.2625357   0.0000000  )
        33           Si  tau(  33) = (  30.7876073  10.2625357  10.2625357  )
        34           Si  tau(  34) = (   0.0000000  20.5250715  20.5250715  )
        35           Si  tau(  35) = (   0.0000000  20.5250715  30.7876073  )
        36           Si  tau(  36) = (   0.0000000  20.5250715   0.0000000  )
        37           Si  tau(  37) = (   0.0000000  20.5250715  10.2625357  )
        38           Si  tau(  38) = (   0.0000000  30.7876073  20.5250715  )
        39           Si  tau(  39) = (   0.0000000  30.7876073  30.7876073  )
        40           Si  tau(  40) = (   0.0000000  30.7876073   0.0000000  )
        41           Si  tau(  41) = (   0.0000000  30.7876073  10.2625357  )
        42           Si  tau(  42) = (   0.0000000   0.0000000  20.5250715  )
        43           Si  tau(  43) = (   0.0000000   0.0000000  30.7876073  )
        44           Si  tau(  44) = (   0.0000000   0.0000000  10.2625357  )
        45           Si  tau(  45) = (   0.0000000  10.2625357  20.5250715  )
        46           Si  tau(  46) = (   0.0000000  10.2625357  30.7876073  )
        47           Si  tau(  47) = (   0.0000000  10.2625357   0.0000000  )
        48           Si  tau(  48) = (   0.0000000  10.2625357  10.2625357  )
        49           Si  tau(  49) = (  10.2625357  20.5250715  20.5250715  )
        50           Si  tau(  50) = (  10.2625357  20.5250715  30.7876073  )
        51           Si  tau(  51) = (  10.2625357  20.5250715   0.0000000  )
        52           Si  tau(  52) = (  10.2625357  20.5250715  10.2625357  )
        53           Si  tau(  53) = (  10.2625357  30.7876073  20.5250715  )
        54           Si  tau(  54) = (  10.2625357  30.7876073  30.7876073  )
        55           Si  tau(  55) = (  10.2625357  30.7876073   0.0000000  )
        56           Si  tau(  56) = (  10.2625357  30.7876073  10.2625357  )
        57           Si  tau(  57) = (  10.2625357   0.0000000  20.5250715  )
        58           Si  tau(  58) = (  10.2625357   0.0000000  30.7876073  )
        59           Si  tau(  59) = (  10.2625357   0.0000000   0.0000000  )
        60           Si  tau(  60) = (  10.2625357   0.0000000  10.2625357  )
[...]
       498           Si  tau( 498) = (  12.8281697  23.0907054  33.3532412  )
       499           Si  tau( 499) = (  12.8281697  23.0907054   2.5656339  )
       500           Si  tau( 500) = (  12.8281697  23.0907054  12.8281697  )
       501           Si  tau( 501) = (  12.8281697  33.3532412  23.0907054  )
       502           Si  tau( 502) = (  12.8281697  33.3532412  33.3532412  )
       503           Si  tau( 503) = (  12.8281697  33.3532412   2.5656339  )
       504           Si  tau( 504) = (  12.8281697  33.3532412  12.8281697  )
       505           Si  tau( 505) = (  12.8281697   2.5656339  23.0907054  )
       506           Si  tau( 506) = (  12.8281697   2.5656339  33.3532412  )
       507           Si  tau( 507) = (  12.8281697   2.5656339   2.5656339  )
       508           Si  tau( 508) = (  12.8281697   2.5656339  12.8281697  )
       509           Si  tau( 509) = (  12.8281697  12.8281697  23.0907054  )
       510           Si  tau( 510) = (  12.8281697  12.8281697  33.3532412  )
       511           Si  tau( 511) = (  12.8281697  12.8281697   2.5656339  )
       512           Si  tau( 512) = (  12.8281697  12.8281697  12.8281697  )

     number of k points=     1  Gaussian smearing, width (Ry)=  0.0010
                       cart. coord. in units 2pi/alat
        k(    1) = (   0.0000000   0.0000000   0.0000000), wk =   2.0000000

     Initial potential from superposition of free atoms

     Self-consistent Calculation

     iteration #  1     ecut=    40.00 Ry     beta= 0.70

     Threshold (ethr) on eigenvalues was too large:
     Diagonalizing with lowered threshold

     total energy              =   -5126.82650228 Ry
     estimated scf accuracy    <      14.53670342 Ry

     Band energy sum           =      64.99726512 Ry

[...]

     total energy              =   -5128.14960993 Ry
     estimated scf accuracy    <          2.2E-10 Ry

[...]

     iteration # 20     ecut=    40.00 Ry     beta= 0.70

     End of self-consistent calculation

          k = 0.0000 0.0000 0.0000 (147954 PWs)   bands (ev):

   -18.3118 -18.3118 -18.3118 -18.2816 -18.2816  -5.9524  -5.7031  -5.6750
    -5.6750  -5.6750  -5.6749  -5.6749  -5.4554  -5.4078  -5.4078  -5.4078
    -5.4075  -5.4075  -5.4075  -5.4075  -5.4075  -5.4075  -5.4075  -5.4075
    -5.1772  -5.1482  -5.1482  -5.1482  -5.1480  -5.1479  -5.1479  -5.1479
    -4.8936  -4.8663  -4.8663  -4.8663  -4.8661  -4.8661  -4.7049  -4.6194
    -4.6194  -4.6194  -4.6184  -4.6184  -4.6184  -4.6184  -4.6184  -4.6184
    -4.6184  -4.6184  -4.6183  -4.6183  -4.6183  -4.6183  -4.6183  -4.6183
    -4.6183  -4.6183  -4.6183  -4.6182  -4.6182  -4.6182  -4.4473  -4.3916
    -4.3916  -4.3916  -4.3906  -4.3906  -4.3906  -4.3906  -4.3906  -4.3906
    -4.3906  -4.3906  -4.3906  -4.3905  -4.3905  -4.3905  -4.3905  -4.3905
    -4.3905  -4.3905  -4.3905  -4.3905  -4.3905  -4.3905  -3.9577  -3.9036
[...]
 | | | | | |- sddk::matrix_storage::set_num_extra                          1     249.83 ms       0.12      15.95     249.83 ms     249.83 ms     249.83 ms
 | | | | | | |- sddk::matrix_storage::set_num_extra|alloc                  1     249.82 ms       0.12     100.00     249.82 ms     249.82 ms     249.82 ms
 | | | | | |- sddk::matrix_storage::remap_backward                         1     206.27 ms       0.10      13.17     206.27 ms     206.27 ms     206.27 ms
 | | | | |- sirius::Beta_projectors_base::generate                         2      10.97 ms       0.01       0.38       5.49 ms       4.47 ms       6.50 ms
 | | | | |- sirius::Beta_projectors_base::inner                            2     719.23 ms       0.33      25.03     359.61 ms     343.47 ms     375.76 ms
 | | | | | |- sirius::Beta_projectors_base::inner|comm                     2     259.48 ms       0.12      36.08     129.74 ms     121.31 ms     138.17 ms
 | | | | |- sirius::Non_local_operator::apply                              4     577.56 ms       0.27      20.10     144.47 ms     143.65 ms     144.96 ms
 | | | |- sirius::Band::set_subspace_mtrx                                  2     327.33 ms       0.15       7.33     163.67 ms     163.18 ms     164.15 ms
 | | | | |- sddk::inner                                                    2     326.90 ms       0.15      99.87     163.45 ms     162.97 ms     163.93 ms
 | | | | | |- sddk::inner|local                                            2      57.31 us       0.00       0.02      28.65 us      16.92 us      40.38 us
 | | | | | |- sddk::inner|device_copy                                      4     199.93 ms       0.09      61.16      49.08 ms       2.78 ms      98.99 ms
 | | | | | |- sddk::inner|store                                            4      10.08 ms       0.00       3.08       2.50 ms       1.94 ms       3.13 ms
 | | | |- Eigensolver_cuda|dsygvd                                          1     257.70 ms       0.12       5.77     257.70 ms     257.70 ms     257.70 ms
 | | | |- sddk::transform                                                  1      40.45 ms       0.02       0.91      40.45 ms      40.45 ms      40.45 ms
 | | | | |- sddk::transform|init                                           1      15.89 us       0.00       0.04      15.89 us      15.89 us      15.89 us
 | | | | |- sddk::transform|local                                          1      19.35 us       0.00       0.05      19.35 us      19.35 us      19.35 us
 | | |- sirius::Beta_projectors_base::dismiss                              1     731.00 ns       0.00       0.00     731.00 ns     731.00 ns     731.00 ns
 |
 |- qe|electrons                                                           1      189.75 s      88.08      88.08      189.75 s      189.75 s      189.75 s
 | |- sirius::Hamiltonian0                                                21     622.32 ms       0.29       0.33      26.20 ms      25.77 ms      86.04 ms
 | | |- sirius::Local_operator                                            21     596.17 ms       0.28      95.80      24.95 ms      24.53 ms      84.80 ms
 | | | |- sirius::Smooth_periodic_function                                21     102.64 ms       0.05      17.22       4.90 ms       4.71 ms       4.97 ms
 | | | |- sirius::Smooth_periodic_function::fft_transform                 21     351.95 ms       0.16      59.04      13.31 ms      12.89 ms      73.17 ms
 | | |- sirius::Non_local_operator                                        42       3.18 ms       0.00       0.51      75.94 us      67.45 us      83.48 us
 | | |- sirius::D_operator::initialize                                    21       7.54 ms       0.00       1.21     359.08 us     347.77 us     365.54 us
 | | |- sirius::Q_operator::initialize                                    21      11.18 ms       0.01       1.80     529.01 us     522.94 us     557.44 us
 | |
 | |- sirius::Band::solve                                                 21      127.46 s      59.17      67.17        5.01 s        1.80 s       19.09 s
 | | |- sirius::Hamiltonian_k                                             21       8.18 ms       0.00       0.01     388.77 us     375.63 us     407.45 us
 | | | |- sirius::Local_operator::prepare_k                               21       8.03 ms       0.00      98.15     381.30 us     368.70 us     400.63 us
 | | | |- sirius::Beta_projectors_base::prepare                           21     106.18 us       0.00       1.30       5.05 us       4.50 us       5.65 us
 | | |- sirius::Band::diag_pseudo_potential_davidson                      21      127.45 s      59.16      99.99        5.01 s        1.80 s       19.09 s
 | | | |- sirius::Band::diag_pseudo_potential_davidson|alloc              21        2.46 s       1.14       1.93      32.71 ms      32.66 ms        1.81 s
 | | | | |- sddk::matrix_storage::matrix_storage                         126        1.61 s       0.75      65.17     468.50 ns     282.00 ns        1.46 s
 | | | |- sirius::Hamiltonian_k::get_h_o_diag                             21     545.31 ms       0.25       0.43      25.88 ms      25.84 ms      27.75 ms
 | | | |- sirius::Band::diag_pseudo_potential_davidson|iter               21      123.91 s      57.52      97.22        4.93 s        1.72 s       19.01 s
 | | | | |- sirius::Hamiltonian_k::apply_h_s                             102       64.93 s      30.14      52.40     329.44 ms      35.49 ms        1.84 s
 | | | | | |- sirius::Local_operator::apply_h                            102       27.94 s      12.97      43.03     137.64 ms       6.98 ms        1.08 s
 | | | | | | |- sddk::matrix_storage::remap_forward                      102        4.97 s       2.31      17.80      24.26 ms       2.85 ms     413.89 ms
 | | | | | | | |- sddk::matrix_storage::set_num_extra                    102     154.51 ms       0.07       3.11       2.94 us       2.21 us     154.11 ms
 | | | | | | | | |- sddk::matrix_storage::set_num_extra|alloc             21     154.23 ms       0.07      99.82       6.11 us       5.20 us     154.11 ms
 | | | | | | |- sddk::matrix_storage::set_num_extra                      102     154.91 ms       0.07       0.55       3.90 us       1.25 us     154.43 ms
 | | | | | | | |- sddk::matrix_storage::set_num_extra|alloc               21     154.61 ms       0.07      99.80       9.29 us       8.25 us     154.42 ms
 | | | | | | |- sddk::matrix_storage::remap_backward                     102        5.61 s       2.60      20.06      28.15 ms     712.65 us     189.43 ms
 | | | | | |- sirius::Beta_projectors_base::generate                     204     962.03 ms       0.45       1.48       4.46 ms       4.39 ms       5.72 ms
 | | | | | |- sirius::Beta_projectors_base::inner                        204       19.08 s       8.86      29.39      41.48 ms       2.81 ms     379.81 ms
 | | | | | | |- sirius::Beta_projectors_base::inner|comm                 204        7.75 s       3.60      40.59      16.65 ms     637.33 us     256.63 ms
 | | | | | |- sirius::Non_local_operator::apply                          408       16.94 s       7.86      26.09      23.63 ms       3.38 ms      91.58 ms
 | | | | |- sddk::orthogonalize                                          102        9.19 s       4.26       7.41      74.11 ms       2.95 ms     353.89 ms
 | | | | | |- sddk::inner                                                183        3.92 s       1.82      42.67      10.52 ms     121.77 us     130.34 ms
 | | | | | | |- sddk::inner|local                                        183       4.26 ms       0.00       0.11      22.29 us      11.52 us      47.10 us
 | | | | | | |- sddk::inner|device_copy                                  366        2.30 s       1.07      58.74     903.28 us       9.16 us      62.52 ms
 | | | | | | |- sddk::inner|store                                        366     158.90 ms       0.07       4.05     108.36 us       1.83 us      25.23 ms
 | | | | | |- sddk::orthogonalize|tmtrx                                  102     296.12 ms       0.14       3.22     504.43 us      18.52 us      60.26 ms
 | | | | | |- sddk::orthogonalize|transform                              102        2.00 s       0.93      21.78       5.05 ms      71.18 us      50.62 ms
 | | | | | |- sddk::transform                                             81        2.97 s       1.38      32.32      24.67 ms       1.67 ms     137.87 ms
 | | | | | | |- sddk::transform|init                                      81       1.21 ms       0.00       0.04      14.01 us      12.39 us      24.36 us
 | | | | | | |- sddk::transform|local                                    243       3.47 ms       0.00       0.12       5.08 us       3.59 us     103.81 us
 | | | | |- sirius::Band::set_subspace_mtrx                              102        4.89 s       2.27       3.95      38.00 ms       1.99 ms     208.13 ms
 | | | | | |- sddk::inner                                                102        4.15 s       1.92      84.74      26.68 ms     840.06 us     196.58 ms
 | | | | | | |- sddk::inner|local                                        102       4.81 ms       0.00       0.12      39.15 us      27.39 us      89.04 us
 | | | | | | |- sddk::inner|device_copy                                  204        2.46 s       1.14      59.29       1.95 ms      12.72 us      92.10 ms
 | | | | | | |- sddk::inner|store                                        204     109.27 ms       0.05       2.64     340.01 us       7.84 us       3.20 ms
 | | | | |- sirius::Band::diag_pseudo_potential_davidson|evp             102       40.96 s      19.01      33.05     305.35 ms     103.71 ms        1.09 s
 | | | | | |- Eigensolver_cuda|dsyevd                                    102       40.96 s      19.01     100.00     305.35 ms     103.71 ms        1.09 s
 | | | | |- sirius::residuals                                            102        2.84 s       1.32       2.29      21.29 ms      10.45 us     103.10 ms
 | | | | | |- sddk::transform                                             86        2.20 s       1.02      77.62      17.46 ms       1.19 ms      92.28 ms
 | | | | | | |- sddk::transform|init                                      86       1.22 ms       0.00       0.06      13.62 us      11.20 us      28.82 us
 | | | | | | |- sddk::transform|local                                    172       3.51 ms       0.00       0.16      14.21 us       4.82 us     121.79 us
 | | | | | |- sirius::normalized_preconditioned_residuals                 86     529.44 ms       0.25      18.67       5.34 ms     914.23 us      51.59 ms
 | | | | |- sirius::Band::diag_pseudo_potential_davidson|update_phi       21        1.11 s       0.51       0.89      54.97 ms      24.87 ms      96.91 ms
 | | | | | |- sddk::transform                                             21        1.11 s       0.51      99.99      54.96 ms      24.86 ms      96.90 ms
 | | | | | | |- sddk::transform|init                                      21     214.45 us       0.00       0.02      11.26 us       5.33 us      12.63 us
 | | | | | | |- sddk::transform|local                                     21     372.68 us       0.00       0.03      18.19 us      15.25 us      19.25 us
 | | |- sirius::Beta_projectors_base::dismiss                             21      11.63 us       0.00       0.00     531.00 ns     407.00 ns     713.00 ns
 | | |- sirius::K_point_set::sync_band_energies                           21     344.59 us       0.00       0.00      16.35 us      15.02 us      17.82 us
 | |
 | |- qe|sum_band                                                         21       31.39 s      14.57      16.54        1.48 s        1.46 s        1.67 s
 | | |- sirius::Density::generate                                         21       26.73 s      12.41      85.16        1.26 s        1.23 s        1.44 s
 | | | |- sirius::Density::generate_valence                               21       26.73 s      12.41     100.00        1.26 s        1.23 s        1.44 s
 | | | | |- sddk::matrix_storage::remap_forward                           21        1.83 s       0.85       6.84      80.92 ms      76.60 ms     150.49 ms
 | | | | | |- sddk::matrix_storage::set_num_extra                         21     148.17 us       0.00       0.01       6.55 us       5.75 us      15.20 us
 | | | | | | |- sddk::matrix_storage::set_num_extra|alloc                  1       6.57 us       0.00       4.43       6.57 us       6.57 us       6.57 us
 | | | | |- sirius::Density::add_k_point_contribution_dm                  21        7.47 s       3.47      27.95     348.72 ms     336.29 ms     433.47 ms
 | | | | | |- sirius::Beta_projectors_base::prepare                       21     223.84 us       0.00       0.00      10.63 us       9.98 us      11.42 us
 | | | | | |- sirius::Beta_projectors_base::generate                      42     191.52 ms       0.09       2.56       4.56 ms       4.50 ms       4.61 ms
 | | | | | |- sirius::Beta_projectors_base::inner                         42        7.23 s       3.36      96.74     168.06 ms     162.15 ms     221.37 ms
 | | | | | | |- sirius::Beta_projectors_base::inner|comm                  42        2.79 s       1.30      38.62      62.75 ms      54.61 ms     114.68 ms
 | | | | | |- sirius::Beta_projectors_base::dismiss                       21       9.58 us       0.00       0.00     441.00 ns     368.00 ns     690.00 ns
 | | | | |- sirius::Density::add_k_point_contribution_rg                  21        3.51 s       1.63      13.14     167.22 ms     166.69 ms     167.59 ms
 | | | | |- sirius::Smooth_periodic_function::fft_transform               21     189.45 ms       0.09       0.71       9.02 ms       8.99 ms       9.07 ms
 | | | | |- sirius::Density::augment                                      21       11.74 s       5.45      43.90     558.87 ms     558.76 ms     558.94 ms
 | | | | | |- sirius::Density::generate_rho_aug                           21       11.72 s       5.44      99.88     558.19 ms     558.07 ms     558.24 ms
 | | |- sirius_api::sirius_get_pw_coeffs                                  21        3.03 s       1.40       9.64     143.92 ms     143.25 ms     147.47 ms
 | | | |- sirius::Smooth_periodic_function::gather_f_pw                   21        1.73 s       0.80      57.07      82.08 ms      81.31 ms      85.62 ms
 | | |- qe|sym_rho                                                        21      33.66 us       0.00       0.00       1.38 us       1.29 us       4.80 us
 | |
 | |- qe|mix                                                              21        3.10 s       1.44       1.63     162.12 ms       1.34 ms     193.43 ms
 | |- sirius_api::sirius_set_pw_coeffs                                    20        9.16 s       4.25       4.83     450.21 ms     432.55 ms     577.65 ms
 | | |- sirius::Smooth_periodic_function::fft_transform                   20     339.96 ms       0.16       3.71      15.76 ms      15.15 ms      26.92 ms
 | |
 | |- qe|newd                                                             20       11.42 s       5.30       6.02     567.20 ms     566.92 ms     641.19 ms
 | | |- sirius::Potential::generate_D_operator_matrix                     20       11.39 s       5.29      99.73     565.67 ms     565.36 ms     639.63 ms
 |
 |- sirius_api::sirius_get_wave_functions                                  1        1.54 s       0.72       0.72        1.54 s        1.54 s        1.54 s
 | |- sddk::matrix_storage::matrix_storage                                 1      15.58 us       0.00       0.00      15.58 us      15.58 us      15.58 us
 |
 |- qe|ions                                                                1     370.55 ms       0.17       0.17     370.55 ms     370.55 ms     370.55 ms
 | |- sirius_api::sirius_set_pw_coeffs                                     1     369.19 ms       0.17      99.63     369.19 ms     369.19 ms     369.19 ms
 | | |- sirius::Smooth_periodic_function::fft_transform                    1      15.47 ms       0.01       4.19      15.47 ms      15.47 ms      15.47 ms
 |
 |- qe|punch                                                               1     801.00 ns       0.00       0.00     801.00 ns     801.00 ns     801.00 ns
 |- sirius::finalize                                                       1     114.74 ms       0.05       0.05     114.74 ms     114.74 ms     114.74 ms

Batch Job Summary Report for Job "test_scf" (20934929) on daint
2020-03-10T15:12:32 2020-03-10T15:12:32 2020-03-10T15:17:17 2020-03-10T15:21:44   00:04:27   00:20:00
Username    Account     Partition   NNodes   Energy
antonk      csstaff     normal           9        0 joules
gpusecs  maxgpusecs        maxmem            summem
   1258        1258    8914993152       82698043392
Scratch File System        Files       Quota
/scratch/snx3000            2651     1000000