     Program PWSCF v.6.3MaX starts on  4Nov2019 at 15:52: 7

     R & G space division:  proc/nbgrp/npool/nimage =     192
     Reading input from pw.in
     Message from routine read_cards :
     DEPRECATED: no units specified in CELL_PARAMETERS card
Warning: card 1 1 1  0 0 0 ignored

     Current dimensions of program PWSCF are:
     Max number of different atomic species (ntypx) = 10
     Max number of k-points (npk) =  40000
     Max angular momentum in pseudopotentials (lmaxx) =  3
     Message from routine iosys:
     minimal I/O required, wf_collect reset to FALSE

     gamma-point specific algorithms are used

     bravais-lattice index     =            0
     lattice parameter (alat)  =       1.0000  a.u.
     unit-cell volume          =   69174.1805 (a.u.)^3
     number of atoms/cell      =          512
     number of atomic types    =            2
     number of electrons       =      2058.00
     number of Kohn-Sham states=         1235
     kinetic-energy cutoff     =      40.0000  Ry
     charge density cutoff     =     600.0000  Ry
     convergence threshold     =      1.0E-10
     mixing beta               =       0.7000
     number of iterations used =            8  plain     mixing
     Exchange-correlation      =  SLA  PZ   NOGX NOGC ( 1  1  0  0 0 0)

     celldm(1)=   1.000000  celldm(2)=   0.000000  celldm(3)=   0.000000
     celldm(4)=   0.000000  celldm(5)=   0.000000  celldm(6)=   0.000000

     crystal axes: (cart. coord. in units of alat)
               a(1) = (  41.050143   0.000000   0.000000 )
               a(2) = (   0.000000  41.050143   0.000000 )
               a(3) = (   0.000000   0.000000  41.050143 )

     reciprocal axes: (cart. coord. in units 2 pi/alat)
               b(1) = (  0.024360  0.000000  0.000000 )
               b(2) = (  0.000000  0.024360  0.000000 )
               b(3) = (  0.000000  0.000000  0.024360 )

     PseudoPot. # 1 for Si read from file:
     ./si_lda_v1.uspp.F.UPF
     MD5 check sum: b5ade7b37ee992b02096e360e546dc2d
     Pseudo is Ultrasoft + core correction, Zval =  4.0
     Generated by new atomic code, or converted to UPF format
     Using radial grid of  899 points,  6 beta functions with:
                l(1) =   0
                l(2) =   0
                l(3) =   1
                l(4) =   1
                l(5) =   2
                l(6) =   2
     Q(r) pseudized with  8 coefficients,  rinner =    0.900   0.900   0.900
                                                       0.900   0.900

     PseudoPot. # 2 for Ge read from file:
     ./ge_lda_v1.4.uspp.F.UPF
     MD5 check sum: bf9d52b59cc8a669818bb2b52e0c2ba0
     Pseudo is Ultrasoft + core correction, Zval = 14.0
     Generated by new atomic code, or converted to UPF format
     Using radial grid of  873 points,  6 beta functions with:
                l(1) =   0
                l(2) =   0
                l(3) =   1
                l(4) =   1
                l(5) =   2
                l(6) =   2
     Q(r) pseudized with  8 coefficients,  rinner =    1.400   1.400   1.400
                                                       1.400   1.400

     atomic species   valence    mass     pseudopotential
        Si             4.00    28.08550     Si( 1.00)
        Ge            14.00    72.61000     Ge( 1.00)

     24 Sym. Ops. (no inversion) found

   Cartesian axes

     site n.     atom                  positions (alat units)
         1           Si  tau(   1) = (  20.5250715  20.5250715  20.5250715  )
         2           Si  tau(   2) = (  20.5250715  20.5250715  30.7876073  )
         3           Si  tau(   3) = (  20.5250715  20.5250715   0.0000000  )
         4           Si  tau(   4) = (  20.5250715  20.5250715  10.2625357  )
         5           Si  tau(   5) = (  20.5250715  30.7876073  20.5250715  )
         6           Si  tau(   6) = (  20.5250715  30.7876073  30.7876073  )
         7           Si  tau(   7) = (  20.5250715  30.7876073   0.0000000  )
         8           Si  tau(   8) = (  20.5250715  30.7876073  10.2625357  )
         9           Si  tau(   9) = (  20.5250715   0.0000000  20.5250715  )
        10           Si  tau(  10) = (  20.5250715   0.0000000  30.7876073  )
        11           Si  tau(  11) = (  20.5250715   0.0000000   0.0000000  )
        12           Si  tau(  12) = (  20.5250715   0.0000000  10.2625357  )
        13           Si  tau(  13) = (  20.5250715  10.2625357  20.5250715  )
        14           Si  tau(  14) = (  20.5250715  10.2625357  30.7876073  )
        15           Si  tau(  15) = (  20.5250715  10.2625357   0.0000000  )
        16           Si  tau(  16) = (  20.5250715  10.2625357  10.2625357  )
        17           Si  tau(  17) = (  30.7876073  20.5250715  20.5250715  )
        18           Si  tau(  18) = (  30.7876073  20.5250715  30.7876073  )
        19           Si  tau(  19) = (  30.7876073  20.5250715   0.0000000  )
        20           Si  tau(  20) = (  30.7876073  20.5250715  10.2625357  )
        21           Si  tau(  21) = (  30.7876073  30.7876073  20.5250715  )
        22           Si  tau(  22) = (  30.7876073  30.7876073  30.7876073  )
        23           Si  tau(  23) = (  30.7876073  30.7876073   0.0000000  )
        24           Si  tau(  24) = (  30.7876073  30.7876073  10.2625357  )
        25           Si  tau(  25) = (  30.7876073   0.0000000  20.5250715  )
        26           Si  tau(  26) = (  30.7876073   0.0000000  30.7876073  )
        27           Si  tau(  27) = (  30.7876073   0.0000000   0.0000000  )
        28           Si  tau(  28) = (  30.7876073   0.0000000  10.2625357  )
        29           Si  tau(  29) = (  30.7876073  10.2625357  20.5250715  )
        30           Si  tau(  30) = (  30.7876073  10.2625357  30.7876073  )
        31           Si  tau(  31) = (  30.7876073  10.2625357   0.0000000  )
        32           Si  tau(  32) = (  30.7876073  10.2625357  10.2625357  )
        33           Si  tau(  33) = (   0.0000000  20.5250715  20.5250715  )
        34           Si  tau(  34) = (   0.0000000  20.5250715  30.7876073  )
        35           Si  tau(  35) = (   0.0000000  20.5250715   0.0000000  )
        36           Si  tau(  36) = (   0.0000000  20.5250715  10.2625357  )
        37           Si  tau(  37) = (   0.0000000  30.7876073  20.5250715  )
        38           Si  tau(  38) = (   0.0000000  30.7876073  30.7876073  )
        39           Si  tau(  39) = (   0.0000000  30.7876073   0.0000000  )
        40           Si  tau(  40) = (   0.0000000  30.7876073  10.2625357  )
        41           Si  tau(  41) = (   0.0000000   0.0000000  20.5250715  )
        42           Si  tau(  42) = (   0.0000000   0.0000000  30.7876073  )
        43           Si  tau(  43) = (   0.0000000   0.0000000  10.2625357  )
        44           Si  tau(  44) = (   0.0000000  10.2625357  20.5250715  )
        45           Si  tau(  45) = (   0.0000000  10.2625357  30.7876073  )
        46           Si  tau(  46) = (   0.0000000  10.2625357   0.0000000  )
        47           Si  tau(  47) = (   0.0000000  10.2625357  10.2625357  )
        48           Si  tau(  48) = (  10.2625357  20.5250715  20.5250715  )
        49           Si  tau(  49) = (  10.2625357  20.5250715  30.7876073  )
        50           Si  tau(  50) = (  10.2625357  20.5250715   0.0000000  )
        51           Si  tau(  51) = (  10.2625357  20.5250715  10.2625357  )
        52           Si  tau(  52) = (  10.2625357  30.7876073  20.5250715  )
        53           Si  tau(  53) = (  10.2625357  30.7876073  30.7876073  )
        54           Si  tau(  54) = (  10.2625357  30.7876073   0.0000000  )
        55           Si  tau(  55) = (  10.2625357  30.7876073  10.2625357  )
        56           Si  tau(  56) = (  10.2625357   0.0000000  20.5250715  )
        57           Si  tau(  57) = (  10.2625357   0.0000000  30.7876073  )
        58           Si  tau(  58) = (  10.2625357   0.0000000   0.0000000  )
        59           Si  tau(  59) = (  10.2625357   0.0000000  10.2625357  )
        60           Si  tau(  60) = (  10.2625357  10.2625357  20.5250715  )
[...]
       498           Si  tau( 498) = (  12.8281697  23.0907054   2.5656339  )
       499           Si  tau( 499) = (  12.8281697  23.0907054  12.8281697  )
       500           Si  tau( 500) = (  12.8281697  33.3532412  23.0907054  )
       501           Si  tau( 501) = (  12.8281697  33.3532412  33.3532412  )
       502           Si  tau( 502) = (  12.8281697  33.3532412   2.5656339  )
       503           Si  tau( 503) = (  12.8281697  33.3532412  12.8281697  )
       504           Si  tau( 504) = (  12.8281697   2.5656339  23.0907054  )
       505           Si  tau( 505) = (  12.8281697   2.5656339  33.3532412  )
       506           Si  tau( 506) = (  12.8281697   2.5656339   2.5656339  )
       507           Si  tau( 507) = (  12.8281697   2.5656339  12.8281697  )
       508           Si  tau( 508) = (  12.8281697  12.8281697  23.0907054  )
       509           Si  tau( 509) = (  12.8281697  12.8281697  33.3532412  )
       510           Si  tau( 510) = (  12.8281697  12.8281697   2.5656339  )
       511           Si  tau( 511) = (  12.8281697  12.8281697  12.8281697  )
       512           Ge  tau( 512) = (   0.0000000   0.0000000   0.0000000  )

     number of k points=     1  gaussian smearing, width (Ry)=  0.0010
                       cart. coord. in units 2pi/alat
        k(    1) = (   0.0000000   0.0000000   0.0000000), wk =   2.0000000

     Initial potential from superposition of free atoms

     starting charge 2057.69115, renormalised to 2058.00000
     Starting wfcs are 2053 randomized atomic wfcs

     Self-consistent Calculation

     iteration #  1     ecut=    40.00 Ry     beta= 0.70
     Davidson diagonalization with overlap
     ethr =  1.00E-02,  avg # of iterations =  3.0

     Threshold (ethr) on eigenvalues was too large:
     Diagonalizing with lowered threshold

     Davidson diagonalization with overlap
     ethr =  7.24E-04,  avg # of iterations =  2.0

     total energy              =   -5133.18214102 Ry
     Harris-Foulkes estimate   =   -5138.34024204 Ry
     estimated scf accuracy    <      14.75161205 Ry

[...]

     total energy              =   -5134.00778459 Ry
     Harris-Foulkes estimate   =   -5134.00778459 Ry
     estimated scf accuracy    <          2.3E-10 Ry

     iteration # 21     ecut=    40.00 Ry     beta= 0.70
     Davidson diagonalization with overlap
     ethr =  1.00E-13,  avg # of iterations =  1.0

     End of self-consistent calculation

          k = 0.0000 0.0000 0.0000 (147954 PWs)   bands (ev):

   -18.2423 -18.2423 -18.2423 -18.2121 -18.2121  -5.9526  -5.7034  -5.6752
    -5.6752  -5.6752  -5.6751  -5.6751  -5.4557  -5.4080  -5.4080  -5.4080
    -5.4077  -5.4077  -5.4077  -5.4077  -5.4077  -5.4077  -5.4077  -5.4076
    -5.1774  -5.1484  -5.1484  -5.1484  -5.1482  -5.1481  -5.1481  -5.1481
    -4.8939  -4.8665  -4.8665  -4.8665  -4.8663  -4.8663  -4.7053  -4.6196
    -4.6196  -4.6196  -4.6186  -4.6186  -4.6186  -4.6186  -4.6186  -4.6185
    -4.6185  -4.6185  -4.6185  -4.6185  -4.6185  -4.6185  -4.6185  -4.6185
    -4.6185  -4.6185  -4.6185  -4.6184  -4.6184  -4.6184  -4.4475  -4.3918
    -4.3918  -4.3918  -4.3908  -4.3908  -4.3908  -4.3908  -4.3908  -4.3908
    -4.3908  -4.3908  -4.3908  -4.3907  -4.3907  -4.3907  -4.3907  -4.3907
    -4.3907  -4.3907  -4.3907  -4.3907  -4.3907  -4.3907  -3.9581  -3.9038
    -3.9038  -3.9038  -3.9032  -3.9032  -3.9032  -3.9032  -3.9032  -3.9032
    -3.9032  -3.9032  -3.8272  -3.7727  -3.7727  -3.7727  -3.7719  -3.7719
    -3.7719  -3.7719  -3.7719  -3.7719  -3.7719  -3.7719  -3.7719  -3.7719
    -3.7719  -3.7719  -3.7719  -3.7719  -3.7719  -3.7719  -3.7719  -3.7718
    -3.7718  -3.7718  -3.6235  -3.6114  -3.6114  -3.6114  -3.5674  -3.5547
    -3.5547  -3.5547  -3.5543  -3.5543  -3.4201  -3.3563  -3.3563  -3.3563
    -3.3549  -3.3549  -3.3549  -3.3549  -3.3549  -3.3549  -3.3549  -3.3549
    -3.3549  -3.3548  -3.3548  -3.3548  -3.3548  -3.3548  -3.3548  -3.3548
    -3.3548  -3.3548  -3.3548  -3.3548  -3.2678  -3.2294  -3.2294  -3.2294
    -3.2284  -3.2284  -3.2284  -3.2284  -3.2284  -3.2284  -3.2284  -3.2284
    -3.2284  -3.2283  -3.2283  -3.2283  -3.2283  -3.2283  -3.2283  -3.2283
    -3.2283  -3.2283  -3.2283  -3.2283  -3.1098  -3.0744  -3.0744  -3.0744
    -3.0739  -3.0739  -3.0739  -3.0739  -3.0739  -3.0738  -3.0738  -3.0738
    -3.0738  -3.0738  -3.0738  -3.0738  -3.0738  -3.0738  -3.0738  -3.0738
    -3.0738  -3.0738  -3.0738  -3.0737  -2.8642  -2.8296  -2.8296  -2.8296
    -2.8288  -2.8288  -2.8288  -2.8286  -2.8286  -2.8286  -2.8286  -2.8286
    -2.8286  -2.8286  -2.8286  -2.8286  -2.8286  -2.8286  -2.8286  -2.8286
    -2.8286  -2.8286  -2.8286  -2.8286  -2.2395  -2.2151  -2.2151  -2.2151
    -2.2148  -2.2148  -2.2148  -2.2148  -2.2148  -2.2148  -2.2147  -2.2147
    -1.8285  -1.8063  -1.8063  -1.8063  -1.8060  -1.8060  -1.7669  -1.7279
    -1.7279  -1.7279  -1.7267  -1.7267  -1.7267  -1.7266  -1.7266  -1.7266
    -1.7266  -1.7266  -1.7266  -1.7266  -1.7266  -1.7266  -1.7266  -1.7266
    -1.7266  -1.7266  -1.7266  -1.7266  -1.7266  -1.7266  -1.6531  -1.6395
    -1.6395  -1.6395  -1.6392  -1.6392  -1.6392  -1.6391  -1.6391  -1.6391
    -1.6390  -1.6390  -1.2381  -1.2185  -1.2185  -1.2185  -1.2179  -1.2179
    -1.2179  -1.2178  -1.2178  -1.2178  -1.2178  -1.2178  -0.9825  -0.9788
    -0.9788  -0.9788  -0.8219  -0.7902  -0.7902  -0.7902  -0.7877  -0.7877
    -0.7877  -0.7877  -0.7877  -0.7876  -0.7876  -0.7876  -0.7876  -0.7876
    -0.7876  -0.7876  -0.7876  -0.7876  -0.7876  -0.7875  -0.7875  -0.7875
    -0.7875  -0.7875  -0.6024  -0.5616  -0.5616  -0.5616  -0.5607  -0.5607
    -0.5607  -0.5606  -0.5606  -0.5606  -0.5605  -0.5605  -0.5605  -0.5605
    -0.5605  -0.5605  -0.5605  -0.5605  -0.5605  -0.5605  -0.5605  -0.5604
    -0.5604  -0.5604  -0.4241  -0.3855  -0.3855  -0.3855  -0.3820  -0.3819
    -0.3819  -0.3819  -0.3818  -0.3818  -0.3818  -0.3818  -0.3818  -0.3818
    -0.3818  -0.3818  -0.3818  -0.3818  -0.3818  -0.3818  -0.3818  -0.3816
    -0.3816  -0.3816  -0.3806  -0.3797  -0.3797  -0.3797  -0.3792  -0.3792
    -0.3792  -0.3791  -0.3791  -0.3791  -0.3791  -0.3791  -0.3791  -0.3791
    -0.3791  -0.3791  -0.3790  -0.3790  -0.3790  -0.3790  -0.3790  -0.3788
    -0.3788  -0.3788   0.0113   0.0433   0.0433   0.0433   0.0438   0.0438
     0.0438   0.0439   0.0439   0.0439   0.0439   0.0439   0.0439   0.0439
     0.0439   0.0439   0.0439   0.0439   0.0439   0.0440   0.0440   0.0441
     0.0441   0.0441   0.2539   0.2614   0.2614   0.2614   0.2616   0.2616
     0.5089   0.5230   0.5230   0.5230   0.5235   0.5235   0.5235   0.5236
     0.5236   0.5239   0.5239   0.5239   0.6931   0.7108   0.7108   0.7108
     0.7125   0.7127   0.7127   0.7127   0.7127   0.7127   0.7127   0.7127
     0.7127   0.7127   0.7127   0.7127   0.7127   0.7127   0.7127   0.7128
     0.7128   0.7135   0.7135   0.7135   1.6827   1.6827   1.6827   1.6831
     1.6842   1.6842   1.6842   1.6842   1.6842   1.6842   1.6843   1.6845
     1.6845   1.7114   1.7114   1.7114   1.7120   1.7120   1.7120   1.7120
[...]
     7.8994   7.8998   7.8998   7.8998   7.8999   7.8999   7.8999   7.8999
     7.8999   7.8999   7.8999   7.8999   7.8999   7.9004   7.9004   7.9004
     7.9061   7.9061   7.9066   7.9066   7.9066   7.9287   7.9367   7.9372
     7.9372   7.9372   7.9395   7.9395   7.9395   7.9659   7.9671   7.9671
     7.9688   7.9688   7.9688   8.1628   8.1789   8.1794   8.1794   8.1794
     8.1795   8.1795   8.1795   8.1796   8.1796   8.1796   8.1796   8.1796
     8.1797   8.1797   8.1797   8.1802   8.1802   8.1802   8.1834   8.1834
     8.1851   8.1851   8.1851   8.2634   8.2844   8.2844   8.2844   8.2846
     8.2846   8.2846   8.2847   8.2847   8.2847   8.2847   8.2847   8.2847
     8.2847   8.2847   8.2847   8.2851   8.2851   8.2851   8.2872   8.2872
     8.2906   8.2906   8.2906   8.3763   8.3827   8.3827   8.3827   8.3830
     8.3830   8.3830   8.3848   8.3848   8.3848   8.3854   8.3854   8.3905
     8.3935   8.3935   8.3936   8.3938   8.3938   8.3938   8.3939   8.3939
     8.3939   8.3940   8.3940   8.3940   8.3940   8.3940   8.3948   8.3948
     8.3949   8.3963   8.3963

     the Fermi energy is     6.3382 ev

!    total energy              =   -5134.00778459 Ry
     Harris-Foulkes estimate   =   -5134.00778459 Ry
     estimated scf accuracy    <          9.8E-11 Ry

     The total energy is the sum of the following terms:

     one-electron contribution =    1066.65430018 Ry
     hartree contribution      =     408.13349149 Ry
     xc contribution           =   -2259.91661055 Ry
     ewald contribution        =   -4348.87896572 Ry
     smearing contrib. (-TS)   =      -0.00000000 Ry

     convergence has been achieved in  21 iterations

     General routines

     Parallel routines

   This run was terminated on:  15:58:41   4Nov2019

   JOB DONE.