     Program PWSCF v.6.1 (svn rev. 13369) starts on 24Apr2017 at 14:37:16

     Current dimensions of program PWSCF are:
     Max number of different atomic species (ntypx) = 10
     Max number of k-points (npk) =  40000
     Max angular momentum in pseudopotentials (lmaxx) =  3

     Subspace diagonalization in iterative solution of the eigenvalue problem:
     one sub-group per band group will be used

     bravais-lattice index     =            0
     lattice parameter (alat)  =      21.3697  a.u.
     unit-cell volume          =    5740.4752 (a.u.)^3
     number of atoms/cell      =           48
     number of atomic types    =            2
     number of electrons       =       384.00
     number of Kohn-Sham states=          230
     kinetic-energy cutoff     =      45.0000  Ry
     charge density cutoff     =     360.0000  Ry
     convergence threshold     =      4.8E-07
     mixing beta               =       0.3500
     number of iterations used =            8  plain     mixing
     Exchange-correlation      = SLA  PW   PBE  PBE ( 1  4  3  4 0 0)

     celldm(1)=  21.369685  celldm(2)=   0.000000  celldm(3)=   0.000000
     celldm(4)=   0.000000  celldm(5)=   0.000000  celldm(6)=   0.000000

     crystal axes: (cart. coord. in units of alat)
               a(1) = (   1.000000   0.000000   0.000000 )
               a(2) = (   0.000000   0.624362   0.236591 )
               a(3) = (   0.000000   0.000000   0.942143 )

     reciprocal axes: (cart. coord. in units 2 pi/alat)
               b(1) = (  1.000000  0.000000  0.000000 )
               b(2) = (  0.000000  1.601634  0.000000 )
               b(3) = (  0.000000 -0.402202  1.061410 )

     PseudoPot. # 1 for Si read from file:
     ./pseudo/Si.pbe-n-rrkjus_psl.1.0.0.UPF
     MD5 check sum: d928fff27e2cf23ab01de9cd48acd62a
     Pseudo is Ultrasoft + core correction, Zval =  4.0
     Generated using "atomic" code by A. Dal Corso  v.5.1
     Using radial grid of 1141 points,  6 beta functions with:
                l(1) =   0
                l(2) =   0
                l(3) =   1
                l(4) =   1
                l(5) =   2
                l(6) =   2
     Q(r) pseudized with 0 coefficients

     PseudoPot. # 2 for Zr read from file:
     ./pseudo/Zr_pbe_v1.uspp.F.UPF
     MD5 check sum: 5db81b1e868ab7776c4564c113de050b
     Pseudo is Ultrasoft + core correction, Zval = 12.0
     Generated by new atomic code, or converted to UPF format
     Using radial grid of  887 points,  6 beta functions with:
                l(1) =   0
                l(2) =   0
                l(3) =   1
                l(4) =   1
                l(5) =   2
                l(6) =   2
     Q(r) pseudized with  6 coefficients,  rinner =    1.200   1.200   1.200
                                                       1.200   1.200

     atomic species   valence    mass     pseudopotential
        Si             4.00    28.08550     Si( 1.00)
        Zr            12.00    91.22400     Zr( 1.00)

     Starting magnetic structure
     atomic species   magnetization
        Si           0.000
        Zr           0.417

     No symmetry found

                                    s                        frac. trans.

      isym =  1     identity

 cryst.   s( 1) = (     1          0          0      )
                  (     0          1          0      )
                  (     0          0          1      )

 cart.    s( 1) = (  1.0000000  0.0000000  0.0000000 )
                  (  0.0000000  1.0000000  0.0000000 )
                  (  0.0000000 -0.0000000  1.0000000 )

   Cartesian axes

     site n.     atom                  positions (alat units)
         1           Zr  tau(   1) = (   0.0836217   0.2683961   0.2310112  )
         2           Zr  tau(   2) = (   0.0765478   0.2661401   0.7108499  )
         3           Zr  tau(   3) = (   0.0789940   0.5734735   0.3556890  )
         4           Zr  tau(   4) = (   0.0824822   0.5720295   0.8277452  )
         5           Zr  tau(   5) = (   0.4103606   0.2646460   0.2355864  )
         6           Zr  tau(   6) = (   0.4151390   0.2722020   0.7133550  )
         7           Zr  tau(   7) = (   0.4145465   0.5792763   0.3629503  )
         8           Zr  tau(   8) = (   0.4188258   0.5827669   0.8328867  )
         9           Zr  tau(   9) = (   0.7449343   0.2621263   0.2364889  )
        10           Zr  tau(  10) = (   0.7464397   0.2684586   0.7148806  )
        11           Zr  tau(  11) = (   0.7548245   0.5741627   0.3544691  )
        12           Zr  tau(  12) = (   0.7481376   0.5730712   0.8305917  )
        13           Zr  tau(  13) = (   0.2523064   0.0397986   0.3552227  )
        14           Zr  tau(  14) = (   0.2481058   0.0476786   0.8289255  )
        15           Zr  tau(  15) = (   0.2450665   0.3577464   0.4646878  )
        16           Zr  tau(  16) = (   0.2474910   0.3568766   0.9342394  )
        17           Zr  tau(  17) = (   0.5770477   0.0432576   0.3539594  )
        18           Zr  tau(  18) = (   0.5805034   0.0390588   0.8208654  )
        19           Zr  tau(  19) = (   0.5804196   0.3635633   0.4719607  )
        20           Zr  tau(  20) = (   0.5808837   0.3626726   0.9366571  )
        21           Zr  tau(  21) = (   0.9157779   0.0510946   0.3474599  )
        22           Zr  tau(  22) = (   0.9102999   0.0453308   0.8194443  )
        23           Zr  tau(  23) = (   0.9228273   0.3579736   0.4663063  )
        24           Zr  tau(  24) = (   0.9157977   0.3506399   0.9422861  )
        25           Si  tau(  25) = (   0.2500972   0.1369384   0.1284103  )
        26           Si  tau(  26) = (   0.2455234   0.1286044   0.5902512  )
        27           Si  tau(  27) = (   0.2529895   0.4422805   0.2482897  )
        28           Si  tau(  28) = (   0.2523671   0.4374747   0.7109859  )
        29           Si  tau(  29) = (   0.5803197   0.1353867   0.1185974  )
        30           Si  tau(  30) = (   0.5764149   0.1305530   0.5937978  )
        31           Si  tau(  31) = (   0.5878628   0.4438546   0.2474914  )
        32           Si  tau(  32) = (   0.5849148   0.4502795   0.7108052  )
        33           Si  tau(  33) = (   0.9201882   0.1259734   0.1261945  )
        34           Si  tau(  34) = (   0.9101974   0.1306203   0.5975211  )
        35           Si  tau(  35) = (   0.9199541   0.4435434   0.2357981  )
        36           Si  tau(  36) = (   0.9163958   0.4483436   0.7077237  )
        37           Si  tau(  37) = (   0.0801570   0.1771082   0.4708905  )
        38           Si  tau(  38) = (   0.0777588   0.1762690   0.9373324  )
        39           Si  tau(  39) = (   0.0898579   0.4919397   0.5812904  )
        40           Si  tau(  40) = (   0.0778399   0.4904681   1.0587971  )
        41           Si  tau(  41) = (   0.4221489   0.1842440   0.4630491  )
        42           Si  tau(  42) = (   0.4117187   0.1783191   0.9412011  )
        43           Si  tau(  43) = (   0.4178742   0.4860726   0.5858796  )
        44           Si  tau(  44) = (   0.4236213   0.4937939   1.0557482  )
        45           Si  tau(  45) = (   0.7518223   0.1800321   0.4587907  )
        46           Si  tau(  46) = (   0.7452544   0.1758020   0.9344978  )
        47           Si  tau(  47) = (   0.7507262   0.4983489   0.5881712  )
        48           Si  tau(  48) = (   0.7559837   0.4908949   1.0582546  )

   Crystallographic axes

     site n.     atom                  positions (cryst. coord.)
         1           Zr  tau(   1) = (  0.0836217  0.4298722  0.1372481  )
         2           Zr  tau(   2) = (  0.0765478  0.4262589  0.6474612  )
         3           Zr  tau(   3) = (  0.0789940  0.9184946  0.1468796  )
         4           Zr  tau(   4) = (  0.0824822  0.9161817  0.6485057  )
         5           Zr  tau(   5) = (  0.4103606  0.4238660  0.1436126  )
         6           Zr  tau(   6) = (  0.4151390  0.4359679  0.6476820  )
         7           Zr  tau(   7) = (  0.4145465  0.9277884  0.1522529  )
         8           Zr  tau(   8) = (  0.4188258  0.9333792  0.6496443  )
         9           Zr  tau(   9) = (  0.7449343  0.4198303  0.1455840  )
        10           Zr  tau(  10) = (  0.7464397  0.4299723  0.6508069  )
        11           Zr  tau(  11) = (  0.7548245  0.9195984  0.1453075  )
        12           Zr  tau(  12) = (  0.7481376  0.9178501  0.6511080  )
        13           Zr  tau(  13) = (  0.2523064  0.0637428  0.3610299  )
        14           Zr  tau(  14) = (  0.2481058  0.0763636  0.8606536  )
        15           Zr  tau(  15) = (  0.2450665  0.5729788  0.3493379  )
        16           Zr  tau(  16) = (  0.2474910  0.5715856  0.8480747  )
        17           Zr  tau(  17) = (  0.5770477  0.0692829  0.3582979  )
        18           Zr  tau(  18) = (  0.5805034  0.0625578  0.8555654  )
        19           Zr  tau(  19) = (  0.5804196  0.5822953  0.3547179  )
        20           Zr  tau(  20) = (  0.5808837  0.5808687  0.8483097  )
        21           Zr  tau(  21) = (  0.9157779  0.0818348  0.3482472  )
        22           Zr  tau(  22) = (  0.9102999  0.0726033  0.8515344  )
        23           Zr  tau(  23) = (  0.9228273  0.5733427  0.3509645  )
        24           Zr  tau(  24) = (  0.9157977  0.5615968  0.8591239  )
        25           Si  tau(  25) = (  0.2500972  0.2193252  0.0812190  )
        26           Si  tau(  26) = (  0.2455234  0.2059771  0.5747738  )
        27           Si  tau(  27) = (  0.2529895  0.7083714  0.0856510  )
        28           Si  tau(  28) = (  0.2523671  0.7006742  0.5786944  )
        29           Si  tau(  29) = (  0.5803197  0.2168399  0.0714277  )
        30           Si  tau(  30) = (  0.5764149  0.2090981  0.5777543  )
        31           Si  tau(  31) = (  0.5878628  0.7108925  0.0841705  )
        32           Si  tau(  32) = (  0.5849148  0.7211829  0.5733525  )
        33           Si  tau(  33) = (  0.9201882  0.2017632  0.0832774  )
        34           Si  tau(  34) = (  0.9101974  0.2092058  0.5816793  )
        35           Si  tau(  35) = (  0.9199541  0.7103940  0.0718843  )
        36           Si  tau(  36) = (  0.9163958  0.7180822  0.5708604  )
        37           Si  tau(  37) = (  0.0801570  0.2836624  0.4285747  )
        38           Si  tau(  38) = (  0.0777588  0.2823184  0.9239984  )
        39           Si  tau(  39) = (  0.0898579  0.7879072  0.4191284  )
        40           Si  tau(  40) = (  0.0778399  0.7855502  0.9265507  )
        41           Si  tau(  41) = (  0.4221489  0.2950914  0.4173817  )
        42           Si  tau(  42) = (  0.4117187  0.2856019  0.9272802  )
        43           Si  tau(  43) = (  0.4178742  0.7785102  0.4263592  )
        44           Si  tau(  44) = (  0.4236213  0.7908769  0.9219770  )
        45           Si  tau(  45) = (  0.7518223  0.2883455  0.4145558  )
        46           Si  tau(  46) = (  0.7452544  0.2815704  0.9211776  )
        47           Si  tau(  47) = (  0.7507262  0.7981725  0.4238539  )
        48           Si  tau(  48) = (  0.7559837  0.7862337  0.9258033  )

     number of k points=   190  Marzari-Vanderbilt smearing, width (Ry)=  0.0200
[...]
        k(   51) = (   0.1666667   0.3333333   0.0000000), wk =   0.0052910
        k(   52) = (   0.1666667   0.3333333   0.1428571), wk =   0.0052910
        k(   53) = (   0.1666667   0.3333333   0.2857143), wk =   0.0052910
        k(   54) = (   0.1666667   0.3333333   0.4285714), wk =   0.0052910
        k(   55) = (   0.1666667   0.3333333  -0.4285714), wk =   0.0052910
        k(   56) = (   0.1666667   0.3333333  -0.2857143), wk =   0.0052910
        k(   57) = (   0.1666667   0.3333333  -0.1428571), wk =   0.0052910
        k(   58) = (   0.1666667   0.4444444   0.0000000), wk =   0.0052910
        k(   59) = (   0.1666667   0.4444444   0.1428571), wk =   0.0052910
        k(   60) = (   0.1666667   0.4444444   0.2857143), wk =   0.0052910
[...]
        k(  176) = (   0.3333333  -0.2222222   0.1428571), wk =   0.0052910
        k(  177) = (   0.3333333  -0.3333333   0.0000000), wk =   0.0052910
        k(  178) = (   0.3333333  -0.3333333  -0.1428571), wk =   0.0052910
        k(  179) = (   0.3333333  -0.3333333  -0.2857143), wk =   0.0052910
        k(  180) = (   0.3333333  -0.3333333  -0.4285714), wk =   0.0052910
        k(  181) = (   0.3333333  -0.3333333   0.4285714), wk =   0.0052910
        k(  182) = (   0.3333333  -0.3333333   0.2857143), wk =   0.0052910
        k(  183) = (   0.3333333  -0.3333333   0.1428571), wk =   0.0052910
        k(  184) = (   0.3333333  -0.4444444   0.0000000), wk =   0.0052910
        k(  185) = (   0.3333333  -0.4444444  -0.1428571), wk =   0.0052910
        k(  186) = (   0.3333333  -0.4444444  -0.2857143), wk =   0.0052910
        k(  187) = (   0.3333333  -0.4444444  -0.4285714), wk =   0.0052910
        k(  188) = (   0.3333333  -0.4444444   0.4285714), wk =   0.0052910
        k(  189) = (   0.3333333  -0.4444444   0.2857143), wk =   0.0052910
        k(  190) = (   0.3333333  -0.4444444   0.1428571), wk =   0.0052910

     Initial potential from superposition of free atoms
     Check: negative starting charge=(component1):   -1.029624
     Check: negative starting charge=(component2):   -0.419736

     starting charge  383.93500, renormalised to  384.00000

     negative rho (up, down):  1.030E+00 4.198E-01
     Starting wfc are  408 randomized atomic wfcs

     Self-consistent Calculation

     iteration #  1     ecut=    45.00 Ry     beta=0.35
     Davidson diagonalization with overlap
     ethr =  1.00E-02,  avg # of iterations =  2.5

     negative rho (up, down):  9.273E-01 5.258E-01

     total energy              =   -2653.60517386 Ry
     Harris-Foulkes estimate   =   -2650.69771725 Ry
     estimated scf accuracy    <       4.34540564 Ry

     total magnetization       =    19.46 Bohr mag/cell
     absolute magnetization    =    23.62 Bohr mag/cell

[...]

     total energy              =   -2656.96530591 Ry
     Harris-Foulkes estimate   =   -2656.96530476 Ry
     estimated scf accuracy    <       0.00000258 Ry

[...]

     iteration # 20     ecut=    45.00 Ry     beta=0.35
     Davidson diagonalization with overlap
     ethr =  6.71E-10,  avg # of iterations =  3.0

     negative rho (up, down):  7.383E-01 7.383E-01

     Magnetic moment per site:
     atom:    1    charge:    9.1155    magn:   -0.0000    constr:    0.0000
     atom:    2    charge:    9.0898    magn:   -0.0000    constr:    0.0000
     atom:    3    charge:    9.1121    magn:   -0.0001    constr:    0.0000
     atom:    4    charge:    9.0842    magn:    0.0001    constr:    0.0000
     atom:    5    charge:    9.1157    magn:   -0.0000    constr:    0.0000
     atom:    6    charge:    9.0983    magn:    0.0001    constr:    0.0000
     atom:    7    charge:    9.0930    magn:    0.0001    constr:    0.0000
     atom:    8    charge:    9.1031    magn:   -0.0000    constr:    0.0000
     atom:    9    charge:    9.0977    magn:   -0.0001    constr:    0.0000
     atom:   10    charge:    9.0793    magn:    0.0000    constr:    0.0000
     atom:   11    charge:    9.0973    magn:    0.0001    constr:    0.0000
     atom:   12    charge:    9.1018    magn:    0.0000    constr:    0.0000
     atom:   13    charge:    9.0949    magn:    0.0000    constr:    0.0000
     atom:   14    charge:    9.0805    magn:    0.0002    constr:    0.0000
     atom:   15    charge:    9.1108    magn:   -0.0001    constr:    0.0000
     atom:   16    charge:    9.0806    magn:    0.0000    constr:    0.0000
     atom:   17    charge:    9.1078    magn:    0.0000    constr:    0.0000
     atom:   18    charge:    9.1073    magn:   -0.0000    constr:    0.0000
     atom:   19    charge:    9.1084    magn:   -0.0001    constr:    0.0000
     atom:   20    charge:    9.0896    magn:    0.0001    constr:    0.0000
     atom:   21    charge:    9.1116    magn:   -0.0001    constr:    0.0000
     atom:   22    charge:    9.1170    magn:   -0.0002    constr:    0.0000
     atom:   23    charge:    9.0832    magn:    0.0002    constr:    0.0000
     atom:   24    charge:    9.1017    magn:    0.0001    constr:    0.0000
     atom:   25    charge:    1.7479    magn:   -0.0000    constr:    0.0000
     atom:   26    charge:    1.7157    magn:   -0.0001    constr:    0.0000
     atom:   27    charge:    1.7341    magn:   -0.0000    constr:    0.0000
     atom:   28    charge:    1.7535    magn:   -0.0000    constr:    0.0000
     atom:   29    charge:    1.7360    magn:   -0.0000    constr:    0.0000
     atom:   30    charge:    1.7304    magn:   -0.0000    constr:    0.0000
     atom:   31    charge:    1.7289    magn:   -0.0000    constr:    0.0000
     atom:   32    charge:    1.7676    magn:   -0.0000    constr:    0.0000
     atom:   33    charge:    1.7518    magn:   -0.0000    constr:    0.0000
     atom:   34    charge:    1.7265    magn:   -0.0000    constr:    0.0000
     atom:   35    charge:    1.7813    magn:   -0.0000    constr:    0.0000
     atom:   36    charge:    1.7354    magn:   -0.0000    constr:    0.0000
     atom:   37    charge:    1.7352    magn:   -0.0000    constr:    0.0000
     atom:   38    charge:    1.7493    magn:   -0.0000    constr:    0.0000
     atom:   39    charge:    1.7444    magn:   -0.0000    constr:    0.0000
     atom:   40    charge:    1.7457    magn:   -0.0001    constr:    0.0000
     atom:   41    charge:    1.7364    magn:   -0.0000    constr:    0.0000
     atom:   42    charge:    1.7496    magn:   -0.0001    constr:    0.0000
     atom:   43    charge:    1.7671    magn:   -0.0000    constr:    0.0000
     atom:   44    charge:    1.7330    magn:   -0.0000    constr:    0.0000
     atom:   45    charge:    1.7109    magn:   -0.0000    constr:    0.0000
     atom:   46    charge:    1.7357    magn:   -0.0000    constr:    0.0000
     atom:   47    charge:    1.7392    magn:   -0.0000    constr:    0.0000
     atom:   48    charge:    1.7553    magn:   -0.0000    constr:    0.0000

     End of self-consistent calculation

 ------ SPIN UP ------------

          k = 0.0000 0.0000 0.0000 ( 29235 PWs)   bands (ev):

   -35.1743 -35.1656 -35.1601 -35.1494 -35.1472 -35.1427 -35.1329 -35.1270
   -35.1233 -35.1209 -35.1109 -35.1062 -35.1013 -35.0979 -35.0947 -35.0933
   -35.0883 -35.0850 -35.0773 -35.0743 -35.0683 -35.0673 -35.0575 -35.0548
   -13.4382 -13.4313 -13.4278 -13.4236 -13.4196 -13.4166 -13.4143 -13.4131
   -13.4085 -13.4056 -13.3980 -13.3959 -13.3941 -13.3647 -13.3621 -13.3579
   -13.3559 -13.3301 -13.3253 -13.3171 -13.3134 -13.2999 -13.2903 -13.2884
   -13.2789 -13.2736 -13.2581 -13.2430 -13.2301 -13.2269 -13.2193 -13.2167
   -13.2055 -13.2017 -13.1993 -13.1968 -13.1903 -13.1845 -13.1745 -13.1714
   -13.1668 -13.1631 -13.1584 -13.1552 -13.1525 -13.1425 -13.1388 -13.1325
   -13.1288 -13.1209 -13.1185 -13.1118 -13.1091 -13.1061 -13.1023 -13.0999
   -13.0909 -13.0903 -13.0836 -13.0830 -13.0808 -13.0739 -13.0685 -13.0649
   -13.0542 -13.0506 -13.0423 -13.0379 -13.0274 -13.0251 -13.0188 -12.9999
     2.1986   2.7580   3.2342   3.3708   3.4593   3.5020   3.7962   3.8951
     4.0691   4.1348   4.2227   4.2598   5.9860   6.1204   6.1554   6.1802
     6.2411   6.3125   6.3292   6.4905   6.5828   6.7609   7.5568   7.5798
     7.7383   7.7842   8.8576   8.8743   8.8812   8.9777   9.1694   9.1986
     9.2115   9.2496   9.8063   9.8242   9.9169   9.9377   9.9836   9.9901
    10.0303  10.0428  10.0693  10.0796  10.1001  10.1077  10.1284  10.1569
    10.2437  10.4486  10.7197  10.7751  10.7795  10.8132  10.8284  10.8494
    10.8841  10.9129  10.9178  11.0142  11.0847  11.1214  11.1330  11.1484
    11.2940  11.3268  11.3762  11.4687  11.5652  11.6663  11.6820  11.7119
    11.7482  11.8217  11.8936  11.9726  11.9888  12.0105  12.0247  12.1538
    12.1762  12.1833  12.2082  12.3188  12.3441  12.4878  12.5037  12.5115
    12.5293  12.8865  13.1020  13.1267  13.3811  13.4317  13.5537  13.5862
    14.0231  14.0481  14.0801  14.0944  14.1354  14.4144  14.5060  14.5951
    14.6156  14.6333  14.7232  14.7640  14.8425  14.8807  15.0959  15.1082
    15.1833  15.2425  15.2703  15.3114  15.3712  15.4473  15.4698  15.5174
    15.5382  15.5652  15.5758  15.6078  15.6179  15.6358  15.6692  15.6777
    15.8310  15.8566  15.8596  15.9079  15.9461  15.9899

     occupation numbers
     1.0000   1.0000   1.0000   1.0000   1.0000   1.0000   1.0000   1.0000
     1.0000   1.0000   1.0000   1.0000   1.0000   1.0000   1.0000   1.0000
     1.0000   1.0000   1.0000   1.0000   1.0000   1.0000   1.0000   1.0000
     1.0000   1.0000   1.0000   1.0000   1.0000   1.0000   1.0000   1.0000
     1.0000   1.0000   1.0000   1.0000   1.0000   1.0000   1.0000   1.0000
     1.0000   1.0000   1.0000   1.0000   1.0000   1.0000   1.0000   1.0000
     1.0000   1.0000   1.0000   1.0000   1.0000   1.0000   1.0000   1.0000
     1.0000   1.0000   1.0000   1.0000   1.0000   1.0000   1.0000   1.0000
     1.0000   1.0000   1.0000   1.0000   1.0000   1.0000   1.0000   1.0000
     1.0000   1.0000   1.0000   1.0000   1.0000   1.0000   1.0000   1.0000
     1.0000   1.0000   1.0000   1.0000   1.0000   1.0000   1.0000   1.0000
     1.0000   1.0000   1.0000   1.0000   1.0000   1.0000   1.0000   1.0000
     1.0000   1.0000   1.0000   1.0000   1.0000   1.0000   1.0000   1.0000
     1.0000   1.0000   1.0000   1.0000   1.0000   1.0000   1.0000   1.0000
     1.0000   1.0000   1.0000   1.0000   1.0000   1.0000   1.0000   1.0000
     1.0000   1.0000   1.0000   1.0000   1.0000   1.0000   1.0000   1.0000
     1.0000   1.0000   1.0000   1.0000   1.0000   1.0000   1.0000   1.0000
     1.0000   1.0000   1.0000   1.0000   1.0000   1.0000   1.0000   1.0000
     1.0000   1.0000   1.0000   1.0000   1.0000   1.0000   1.0000   1.0000
     1.0000   1.0000   1.0000   1.0000   1.0000   1.0000   1.0000   1.0000
     1.0000   1.0000   1.0000   1.0000   1.0000   1.0000   1.0000   1.0000
     1.0000   1.0000   1.0000   1.0000   1.0000   1.0000   1.0000   1.0000
     1.0000   1.0000   1.0000   1.0000   1.0000   1.0000   1.0000   1.0000
     1.0000   1.0066   1.0559   1.0643   0.9550   0.8526   0.5308   0.4436
     0.0032   0.0021   0.0012   0.0009   0.0004   0.0000   0.0000   0.0000
     0.0000   0.0000   0.0000   0.0000   0.0000   0.0000   0.0000   0.0000
     0.0000   0.0000   0.0000   0.0000   0.0000   0.0000   0.0000   0.0000
     0.0000   0.0000   0.0000   0.0000   0.0000   0.0000   0.0000   0.0000
     0.0000   0.0000   0.0000   0.0000   0.0000   0.0000

[...]

          k =-0.5000 0.0000 0.0000 ( 29270 PWs)   bands (ev):

[...]

 ------ SPIN DOWN ----------

[...]

          k =-0.5000 0.7693-0.1516 ( 29286 PWs)   bands (ev):

[...]

          k = 0.3333-0.7693 0.1516 ( 29291 PWs)   bands (ev):

   -35.1716 -35.1614 -35.1607 -35.1561 -35.1475 -35.1415 -35.1303 -35.1296
   -35.1240 -35.1223 -35.1128 -35.1067 -35.1019 -35.0986 -35.0950 -35.0930
   -35.0890 -35.0853 -35.0771 -35.0743 -35.0689 -35.0671 -35.0583 -35.0554
   -13.4196 -13.4168 -13.4090 -13.4035 -13.3984 -13.3908 -13.3869 -13.3842
   -13.3788 -13.3732 -13.3709 -13.3688 -13.3622 -13.3578 -13.3535 -13.3467
   -13.3404 -13.3362 -13.3303 -13.3239 -13.3202 -13.3159 -13.3124 -13.3030
   -13.2973 -13.2755 -13.2671 -13.2570 -13.2490 -13.2439 -13.2379 -13.2338
   -13.2302 -13.2280 -13.2233 -13.2171 -13.2143 -13.2079 -13.1990 -13.1931
   -13.1901 -13.1790 -13.1689 -13.1643 -13.1573 -13.1492 -13.1449 -13.1408
   -13.1326 -13.1263 -13.1226 -13.1168 -13.1104 -13.1074 -13.1033 -13.1002
   -13.0920 -13.0854 -13.0817 -13.0761 -13.0699 -13.0635 -13.0594 -13.0559
   -13.0511 -13.0437 -13.0369 -13.0330 -13.0267 -13.0225 -13.0125 -12.9978
     2.8090   2.9277   2.9660   3.1646   3.2502   3.2815   3.4198   3.5757
     4.4486   4.4870   4.6243   4.7458   5.2958   5.3986   5.4949   5.6123
     6.7725   6.8230   6.8771   6.9119   6.9767   7.0056   7.0740   7.3741
     8.6870   8.7888   8.8962   8.9251   8.9769   9.0069   9.0649   9.1910
     9.2823   9.3568   9.4051   9.4905   9.5077   9.5907   9.5989   9.7225
     9.7590   9.8892   9.9323   9.9517  10.0393  10.0514  10.1099  10.1590
    10.4028  10.5852  10.6394  10.6489  10.6985  10.7439  10.7808  10.8521
    10.8698  10.9117  10.9641  10.9994  11.0220  11.0430  11.0615  11.1042
    11.1594  11.3356  11.3693  11.4135  11.4478  11.4798  11.5085  11.5684
    11.7919  11.8453  12.0464  12.0909  12.0935  12.1353  12.1575  12.1910
    12.2605  12.4060  12.4243  12.4840  12.5797  12.6379  12.6570  12.6952
    12.7281  12.8643  13.0628  13.0765  13.1561  13.2459  13.2889  13.3679
    13.6590  13.7058  13.8121  13.9853  14.0002  14.0847  14.2348  14.4136
    14.4237  14.5447  14.5770  14.6685  14.7432  14.7798  14.8142  14.8602
    14.9899  15.0616  15.1258  15.1563  15.2131  15.2615  15.3050  15.3279
    15.3709  15.4035  15.4421  15.5405  15.6342  15.6552  15.7001  15.7740
    15.8503  15.8972  15.9215  16.0234  16.0631  16.1065

     occupation numbers
     1.0000   1.0000   1.0000   1.0000   1.0000   1.0000   1.0000   1.0000
     1.0000   1.0000   1.0000   1.0000   1.0000   1.0000   1.0000   1.0000
     1.0000   1.0000   1.0000   1.0000   1.0000   1.0000   1.0000   1.0000
     1.0000   1.0000   1.0000   1.0000   1.0000   1.0000   1.0000   1.0000
     1.0000   1.0000   1.0000   1.0000   1.0000   1.0000   1.0000   1.0000
     1.0000   1.0000   1.0000   1.0000   1.0000   1.0000   1.0000   1.0000
     1.0000   1.0000   1.0000   1.0000   1.0000   1.0000   1.0000   1.0000
     1.0000   1.0000   1.0000   1.0000   1.0000   1.0000   1.0000   1.0000
     1.0000   1.0000   1.0000   1.0000   1.0000   1.0000   1.0000   1.0000
     1.0000   1.0000   1.0000   1.0000   1.0000   1.0000   1.0000   1.0000
     1.0000   1.0000   1.0000   1.0000   1.0000   1.0000   1.0000   1.0000
     1.0000   1.0000   1.0000   1.0000   1.0000   1.0000   1.0000   1.0000
     1.0000   1.0000   1.0000   1.0000   1.0000   1.0000   1.0000   1.0000
     1.0000   1.0000   1.0000   1.0000   1.0000   1.0000   1.0000   1.0000
     1.0000   1.0000   1.0000   1.0000   1.0000   1.0000   1.0000   1.0000
     1.0000   1.0000   1.0000   1.0000   1.0000   1.0000   1.0000   1.0000
     1.0000   1.0000   1.0000   1.0000   1.0000   1.0000   1.0000   1.0000
     1.0000   1.0000   1.0000   1.0000   1.0000   1.0000   1.0000   1.0000
     1.0000   1.0000   1.0000   1.0000   1.0000   1.0000   1.0000   1.0000
     1.0000   1.0000   1.0000   1.0000   1.0000   1.0000   1.0000   1.0000
     1.0000   1.0000   1.0000   1.0000   1.0000   1.0000   1.0000   1.0000
     1.0000   1.0000   1.0000   1.0000   1.0000   1.0000   1.0000   1.0000
     1.0000   1.0000   1.0000   1.0000   1.0000   1.0001   1.0001   1.0003
     1.0005   1.0048   1.0426   1.0471   1.0734   1.0805   1.0630   0.9768
     0.2715   0.1852   0.0636   0.0060   0.0047   0.0011   0.0001   0.0000
     0.0000   0.0000   0.0000   0.0000   0.0000   0.0000   0.0000   0.0000
     0.0000   0.0000   0.0000   0.0000   0.0000   0.0000   0.0000   0.0000
     0.0000   0.0000   0.0000   0.0000   0.0000   0.0000   0.0000   0.0000
     0.0000   0.0000   0.0000   0.0000   0.0000   0.0000

     the Fermi energy is    13.6029 ev

!    total energy              =   -2656.96530659 Ry
     Harris-Foulkes estimate   =   -2656.96530631 Ry
     estimated scf accuracy    <       0.00000044 Ry

     The total energy is the sum of the following terms:

     one-electron contribution =    -398.57234049 Ry
     hartree contribution      =     372.94946707 Ry
     xc contribution           =    -578.20516995 Ry
     ewald contribution        =   -2053.14345179 Ry
     smearing contrib. (-TS)   =       0.00618857 Ry

     total magnetization       =    -0.00 Bohr mag/cell
     absolute magnetization    =     0.01 Bohr mag/cell

     convergence has been achieved in  20 iterations

     Writing output data file aiid_.save

     General routines

     Parallel routines

   This run was terminated on:  15:31:34  24Apr2017

   JOB DONE.