     Program PWSCF v.6.1 (svn rev. 13369) starts on  2May2017 at 11:52:27

     Current dimensions of program PWSCF are:
     Max number of different atomic species (ntypx) = 10
     Max number of k-points (npk) =  40000
     Max angular momentum in pseudopotentials (lmaxx) =  3

     Subspace diagonalization in iterative solution of the eigenvalue problem:
     one sub-group per band group will be used

     bravais-lattice index     =            0
     lattice parameter (alat)  =      31.4056  a.u.
     unit-cell volume          =    9734.7308 (a.u.)^3
     number of atoms/cell      =           24
     number of atomic types    =            2
     number of electrons       =       192.00
     number of Kohn-Sham states=          115
     kinetic-energy cutoff     =      45.0000  Ry
     charge density cutoff     =     360.0000  Ry
     convergence threshold     =      2.4E-07
     mixing beta               =       0.3500
     number of iterations used =            8  plain     mixing
     Exchange-correlation      = SLA  PW   PBE  PBE ( 1  4  3  4 0 0)

     celldm(1)=  31.405604  celldm(2)=   0.000000  celldm(3)=   0.000000
     celldm(4)=   0.000000  celldm(5)=   0.000000  celldm(6)=   0.000000

     crystal axes: (cart. coord. in units of alat)
               a(1) = (   1.000000   0.000000   0.000000 )
               a(2) = (  -0.333333   0.471405  -0.333333 )
               a(3) = (   0.000000   0.000000   0.666667 )

     reciprocal axes: (cart. coord. in units 2 pi/alat)
               b(1) = (  1.000000  0.707107  0.000000 )
               b(2) = (  0.000000  2.121320  0.000000 )
               b(3) = (  0.000000  1.060660  1.500000 )

     PseudoPot. # 1 for Cs read from file:
     ./pseudo/Cs_pbe_v1.uspp.F.UPF
     MD5 check sum: 3476d69cb178dfad3ffaa59df4e07ca4
     Pseudo is Ultrasoft + core correction, Zval =  9.0
     Generated by new atomic code, or converted to UPF format
     Using radial grid of  905 points,  6 beta functions with:
                l(1) =   0
                l(2) =   0
                l(3) =   1
                l(4) =   1
                l(5) =   2
                l(6) =   2
     Q(r) pseudized with  6 coefficients,  rinner =    1.500   1.500   1.500
                                                       1.500   1.500

     PseudoPot. # 2 for I  read from file:
     ./pseudo/I_pbe_v1.uspp.F.UPF
     MD5 check sum: 51366c2fb896752a147e77acbb9f6bcb
     Pseudo is Ultrasoft + core correction, Zval =  7.0
     Generated by new atomic code, or converted to UPF format
     Using radial grid of  893 points,  6 beta functions with:
                l(1) =   0
                l(2) =   0
                l(3) =   1
                l(4) =   1
                l(5) =   2
                l(6) =   2
     Q(r) pseudized with  8 coefficients,  rinner =    1.500   1.500   1.500
                                                       1.500   1.500

     atomic species   valence    mass     pseudopotential
        Cs             9.00   132.90545     Cs( 1.00)
        I              7.00   126.90447     I ( 1.00)

     No symmetry found

                                    s                        frac. trans.

      isym =  1     identity

 cryst.   s( 1) = (     1          0          0      )
                  (     0          1          0      )
                  (     0          0          1      )

 cart.    s( 1) = (  1.0000000  0.0000000  0.0000000 )
                  (  0.0000000  1.0000000  0.0000000 )
                  (  0.0000000  0.0000000  1.0000000 )

   Cartesian axes

     site n.     atom                  positions (alat units)
         1           Cs  tau(   1) = (  -0.0005521   0.0026429   0.6626814  )
         2           Cs  tau(   2) = (   0.6652750   0.4706798   0.0045508  )
         3           Cs  tau(   3) = (   0.8306656   0.2318503   0.4988968  )
         4           Cs  tau(   4) = (  -0.1669270   0.2371376   0.1620793  )
         5           Cs  tau(   5) = (   0.3364226   0.0035193  -0.0011148  )
         6           Cs  tau(   6) = (  -0.0040065   0.4711319   0.0026543  )
         7           Cs  tau(   7) = (   0.1624879   0.2371932  -0.1647993  )
         8           Cs  tau(   8) = (   0.1678616   0.2352843   0.1620224  )
         9           Cs  tau(   9) = (   0.3322264   0.4680203  -0.3300939  )
        10           Cs  tau(  10) = (   0.3298237   0.4681141   0.0001662  )
        11           Cs  tau(  11) = (   0.4971777   0.2392076  -0.1649582  )
        12           Cs  tau(  12) = (   0.5009320   0.2319484   0.1638010  )
        13           I   tau(  13) = (  -0.1636183   0.4710614  -0.1629570  )
        14           I   tau(  14) = (   0.1709796   0.0019348   0.5009093  )
        15           I   tau(  15) = (  -0.0028342   0.2345837   0.0037266  )
        16           I   tau(  16) = (  -0.0047842   0.2354132   0.3328859  )
        17           I   tau(  17) = (   0.1682856   0.4705384  -0.1711165  )
        18           I   tau(  18) = (   0.1637733   0.4676207   0.1673615  )
        19           I   tau(  19) = (   0.3308541   0.2323943  -0.0024663  )
        20           I   tau(  20) = (   0.3314113   0.2384359   0.3298685  )
        21           I   tau(  21) = (   0.8320405   0.0046296   0.1669271  )
        22           I   tau(  22) = (   0.8288091   0.0013232   0.4990241  )
        23           I   tau(  23) = (   0.6631975   0.2355580  -0.0033341  )
        24           I   tau(  24) = (   0.6712487   0.2343299   0.3338752  )

   Crystallographic axes

     site n.     atom                  positions (cryst. coord.)
         1           Cs  tau(   1) = (  0.0013168  0.0056065  0.9968254  )
         2           Cs  tau(   2) = (  0.9980959  0.9984626  0.5060576  )
         3           Cs  tau(   3) = (  0.9946085  0.4918287  0.9942595  )
         4           Cs  tau(   4) = (  0.0007546  0.5030449  0.4946414  )
         5           Cs  tau(   5) = (  0.3389111  0.0074657  0.0020607  )
         6           Cs  tau(   6) = (  0.3291340  0.9994216  0.5036923  )
         7           Cs  tau(   7) = (  0.3302088  0.5031628  0.0043825  )
         8           Cs  tau(   8) = (  0.3342327  0.4991134  0.4925903  )
         9           Cs  tau(   9) = (  0.6631667  0.9928210  0.0012696  )
        10           Cs  tau(  10) = (  0.6608304  0.9930200  0.4967593  )
        11           Cs  tau(  11) = (  0.6663230  0.5074360  0.0062807  )
        12           Cs  tau(  12) = (  0.6649443  0.4920369  0.4917199  )
        13           I   tau(  13) = (  0.1694724  0.9992722  0.2552006  )
        14           I   tau(  14) = (  0.1723478  0.0041044  0.7534161  )
        15           I   tau(  15) = (  0.1630415  0.4976271  0.2544035  )
        16           I   tau(  16) = (  0.1616781  0.4993868  0.7490222  )
        17           I   tau(  17) = (  0.5010064  0.9981626  0.2424066  )
        18           I   tau(  18) = (  0.4944310  0.9919733  0.7470289  )
        19           I   tau(  19) = (  0.4951817  0.4929827  0.2427919  )
        20           I   tau(  20) = (  0.5000110  0.5057990  0.7477023  )
        21           I   tau(  21) = (  0.8353141  0.0098208  0.2553011  )
        22           I   tau(  22) = (  0.8297448  0.0028070  0.7499397  )
        23           I   tau(  23) = (  0.8297622  0.4996941  0.2448459  )
        24           I   tau(  24) = (  0.8369449  0.4970888  0.7493572  )

     number of k points=   293  Marzari-Vanderbilt smearing, width (Ry)=  0.0200
                       cart. coord. in units 2pi/alat
        k(    1) = (   0.0000000   0.0000000   0.0000000), wk =   0.0063492
        k(    2) = (   0.0000000   0.1515229   0.2142857), wk =   0.0063492
        k(    3) = (   0.0000000   0.3030458   0.4285714), wk =   0.0063492
        k(    4) = (   0.0000000   0.4545686   0.6428571), wk =   0.0063492
        k(    5) = (   0.0000000   0.2357023   0.0000000), wk =   0.0126984
        k(    6) = (   0.0000000   0.3872251   0.2142857), wk =   0.0063492
        k(    7) = (   0.0000000   0.5387480   0.4285714), wk =   0.0063492
        k(    8) = (   0.0000000   0.6902709   0.6428571), wk =   0.0063492
        k(    9) = (   0.0000000  -0.2188664  -0.6428571), wk =   0.0063492
        k(   10) = (   0.0000000  -0.0673435  -0.4285714), wk =   0.0063492
        k(   11) = (   0.0000000   0.0841794  -0.2142857), wk =   0.0063492
        k(   12) = (   0.0000000   0.4714045   0.0000000), wk =   0.0126984
        k(   13) = (   0.0000000   0.6229274   0.2142857), wk =   0.0063492
        k(   14) = (   0.0000000   0.7744503   0.4285714), wk =   0.0063492
        k(   15) = (   0.0000000   0.9259732   0.6428571), wk =   0.0063492
        k(   16) = (   0.0000000   0.0168359  -0.6428571), wk =   0.0063492
        k(   17) = (   0.0000000   0.1683588  -0.4285714), wk =   0.0063492
        k(   18) = (   0.0000000   0.3198816  -0.2142857), wk =   0.0063492
        k(   19) = (   0.0000000   0.7071068   0.0000000), wk =   0.0126984
        k(   20) = (   0.0000000   0.8586297   0.2142857), wk =   0.0063492
        k(   21) = (   0.0000000   1.0101525   0.4285714), wk =   0.0063492
        k(   22) = (   0.0000000   1.1616754   0.6428571), wk =   0.0063492
        k(   23) = (   0.0000000   0.2525381  -0.6428571), wk =   0.0063492
        k(   24) = (   0.0000000   0.4040610  -0.4285714), wk =   0.0063492
        k(   25) = (   0.0000000   0.5555839  -0.2142857), wk =   0.0063492
        k(   26) = (   0.0000000   0.9428090   0.0000000), wk =   0.0126984
        k(   27) = (   0.0000000   1.0943319   0.2142857), wk =   0.0063492
        k(   28) = (   0.0000000   1.2458548   0.4285714), wk =   0.0063492
        k(   29) = (   0.0000000   1.3973777   0.6428571), wk =   0.0063492
        k(   30) = (   0.0000000   0.4882404  -0.6428571), wk =   0.0063492
        k(   31) = (   0.0000000   0.6397633  -0.4285714), wk =   0.0063492
        k(   32) = (   0.0000000   0.7912862  -0.2142857), wk =   0.0063492
        k(   33) = (   0.2000000   0.1414214   0.0000000), wk =   0.0126984
        k(   34) = (   0.2000000   0.2929442   0.2142857), wk =   0.0063492
        k(   35) = (   0.2000000   0.4444671   0.4285714), wk =   0.0063492
        k(   36) = (   0.2000000   0.5959900   0.6428571), wk =   0.0063492
        k(   37) = (   0.2000000  -0.3131473  -0.6428571), wk =   0.0063492
        k(   38) = (   0.2000000  -0.1616244  -0.4285714), wk =   0.0063492
        k(   39) = (   0.2000000  -0.0101015  -0.2142857), wk =   0.0063492
        k(   40) = (   0.2000000   0.3771236   0.0000000), wk =   0.0126984
        k(   41) = (   0.2000000   0.5286465   0.2142857), wk =   0.0063492
        k(   42) = (   0.2000000   0.6801694   0.4285714), wk =   0.0063492
        k(   43) = (   0.2000000   0.8316923   0.6428571), wk =   0.0063492
        k(   44) = (   0.2000000  -0.0774450  -0.6428571), wk =   0.0063492
        k(   45) = (   0.2000000   0.0740779  -0.4285714), wk =   0.0063492
        k(   46) = (   0.2000000   0.2256007  -0.2142857), wk =   0.0063492
        k(   47) = (   0.2000000   0.6128259   0.0000000), wk =   0.0126984
        k(   48) = (   0.2000000   0.7643488   0.2142857), wk =   0.0063492
        k(   49) = (   0.2000000   0.9158716   0.4285714), wk =   0.0063492
        k(   50) = (   0.2000000   1.0673945   0.6428571), wk =   0.0063492
        k(   51) = (   0.2000000   0.1582572  -0.6428571), wk =   0.0063492
        k(   52) = (   0.2000000   0.3097801  -0.4285714), wk =   0.0063492
        k(   53) = (   0.2000000   0.4613030  -0.2142857), wk =   0.0063492
        k(   54) = (   0.2000000   0.8485281   0.0000000), wk =   0.0126984
        k(   55) = (   0.2000000   1.0000510   0.2142857), wk =   0.0063492
        k(   56) = (   0.2000000   1.1515739   0.4285714), wk =   0.0063492
        k(   57) = (   0.2000000   1.3030968   0.6428571), wk =   0.0063492
        k(   58) = (   0.2000000   0.3939595  -0.6428571), wk =   0.0063492
        k(   59) = (   0.2000000   0.5454824  -0.4285714), wk =   0.0063492
        k(   60) = (   0.2000000   0.6970053  -0.2142857), wk =   0.0063492
[...]
        k(  279) = (  -0.4000000   0.8788327  -0.6428571), wk =   0.0063492
        k(  280) = (  -0.4000000   0.7273098  -0.4285714), wk =   0.0063492
        k(  281) = (  -0.4000000   0.5757870  -0.2142857), wk =   0.0063492
        k(  282) = (  -0.4000000   0.0370389   0.2142857), wk =   0.0063492
        k(  283) = (  -0.4000000  -0.1144840   0.4285714), wk =   0.0063492
        k(  284) = (  -0.4000000  -0.2660068   0.6428571), wk =   0.0063492
        k(  285) = (  -0.4000000   0.6431305  -0.6428571), wk =   0.0063492
        k(  286) = (  -0.4000000   0.4916076  -0.4285714), wk =   0.0063492
        k(  287) = (  -0.4000000   0.3400847  -0.2142857), wk =   0.0063492
        k(  288) = (  -0.4000000  -0.1986633   0.2142857), wk =   0.0063492
        k(  289) = (  -0.4000000  -0.3501862   0.4285714), wk =   0.0063492
        k(  290) = (  -0.4000000  -0.5017091   0.6428571), wk =   0.0063492
        k(  291) = (  -0.4000000   0.4074282  -0.6428571), wk =   0.0063492
        k(  292) = (  -0.4000000   0.2559053  -0.4285714), wk =   0.0063492
        k(  293) = (  -0.4000000   0.1043824  -0.2142857), wk =   0.0063492

                       cryst. coord.
        k(    1) = (   0.0000000   0.0000000   0.0000000), wk =   0.0063492
        k(    2) = (   0.0000000   0.0000000   0.1428571), wk =   0.0063492
        k(    3) = (   0.0000000   0.0000000   0.2857143), wk =   0.0063492
        k(    4) = (   0.0000000  -0.0000000   0.4285714), wk =   0.0063492
        k(    5) = (   0.0000000   0.1111111   0.0000000), wk =   0.0126984
        k(    6) = (   0.0000000   0.1111111   0.1428571), wk =   0.0063492
        k(    7) = (   0.0000000   0.1111111   0.2857143), wk =   0.0063492
        k(    8) = (   0.0000000   0.1111111   0.4285714), wk =   0.0063492
        k(    9) = (   0.0000000   0.1111111  -0.4285714), wk =   0.0063492
        k(   10) = (   0.0000000   0.1111111  -0.2857143), wk =   0.0063492
        k(   11) = (   0.0000000   0.1111111  -0.1428571), wk =   0.0063492
        k(   12) = (   0.0000000   0.2222222   0.0000000), wk =   0.0126984
        k(   13) = (   0.0000000   0.2222222   0.1428571), wk =   0.0063492
        k(   14) = (   0.0000000   0.2222222   0.2857143), wk =   0.0063492
        k(   15) = (   0.0000000   0.2222222   0.4285714), wk =   0.0063492
        k(   16) = (   0.0000000   0.2222222  -0.4285714), wk =   0.0063492
        k(   17) = (   0.0000000   0.2222222  -0.2857143), wk =   0.0063492
        k(   18) = (   0.0000000   0.2222222  -0.1428571), wk =   0.0063492
        k(   19) = (   0.0000000   0.3333333   0.0000000), wk =   0.0126984
        k(   20) = (   0.0000000   0.3333333   0.1428571), wk =   0.0063492
        k(   21) = (   0.0000000   0.3333333   0.2857143), wk =   0.0063492
        k(   22) = (   0.0000000   0.3333333   0.4285714), wk =   0.0063492
        k(   23) = (   0.0000000   0.3333333  -0.4285714), wk =   0.0063492
        k(   24) = (   0.0000000   0.3333333  -0.2857143), wk =   0.0063492
        k(   25) = (   0.0000000   0.3333333  -0.1428571), wk =   0.0063492
        k(   26) = (   0.0000000   0.4444444   0.0000000), wk =   0.0126984
        k(   27) = (   0.0000000   0.4444444   0.1428571), wk =   0.0063492
        k(   28) = (   0.0000000   0.4444444   0.2857143), wk =   0.0063492
        k(   29) = (   0.0000000   0.4444444   0.4285714), wk =   0.0063492
        k(   30) = (   0.0000000   0.4444444  -0.4285714), wk =   0.0063492
        k(   31) = (   0.0000000   0.4444444  -0.2857143), wk =   0.0063492
        k(   32) = (   0.0000000   0.4444444  -0.1428571), wk =   0.0063492
        k(   33) = (   0.2000000   0.0000000   0.0000000), wk =   0.0126984
        k(   34) = (   0.2000000   0.0000000   0.1428571), wk =   0.0063492
        k(   35) = (   0.2000000  -0.0000000   0.2857143), wk =   0.0063492
        k(   36) = (   0.2000000  -0.0000000   0.4285714), wk =   0.0063492
        k(   37) = (   0.2000000  -0.0000000  -0.4285714), wk =   0.0063492
        k(   38) = (   0.2000000  -0.0000000  -0.2857143), wk =   0.0063492
        k(   39) = (   0.2000000  -0.0000000  -0.1428571), wk =   0.0063492
        k(   40) = (   0.2000000   0.1111111   0.0000000), wk =   0.0126984
        k(   41) = (   0.2000000   0.1111111   0.1428571), wk =   0.0063492
        k(   42) = (   0.2000000   0.1111111   0.2857143), wk =   0.0063492
        k(   43) = (   0.2000000   0.1111111   0.4285714), wk =   0.0063492
        k(   44) = (   0.2000000   0.1111111  -0.4285714), wk =   0.0063492
        k(   45) = (   0.2000000   0.1111111  -0.2857143), wk =   0.0063492
        k(   46) = (   0.2000000   0.1111111  -0.1428571), wk =   0.0063492
        k(   47) = (   0.2000000   0.2222222   0.0000000), wk =   0.0126984
        k(   48) = (   0.2000000   0.2222222   0.1428571), wk =   0.0063492
        k(   49) = (   0.2000000   0.2222222   0.2857143), wk =   0.0063492
        k(   50) = (   0.2000000   0.2222222   0.4285714), wk =   0.0063492
        k(   51) = (   0.2000000   0.2222222  -0.4285714), wk =   0.0063492
        k(   52) = (   0.2000000   0.2222222  -0.2857143), wk =   0.0063492
        k(   53) = (   0.2000000   0.2222222  -0.1428571), wk =   0.0063492
        k(   54) = (   0.2000000   0.3333333   0.0000000), wk =   0.0126984
        k(   55) = (   0.2000000   0.3333333   0.1428571), wk =   0.0063492
        k(   56) = (   0.2000000   0.3333333   0.2857143), wk =   0.0063492
        k(   57) = (   0.2000000   0.3333333   0.4285714), wk =   0.0063492
        k(   58) = (   0.2000000   0.3333333  -0.4285714), wk =   0.0063492
        k(   59) = (   0.2000000   0.3333333  -0.2857143), wk =   0.0063492
        k(   60) = (   0.2000000   0.3333333  -0.1428571), wk =   0.0063492
[...]
        k(  279) = (  -0.4000000   0.7619048  -0.4285714), wk =   0.0063492
        k(  280) = (  -0.4000000   0.6190476  -0.2857143), wk =   0.0063492
        k(  281) = (  -0.4000000   0.4761905  -0.1428571), wk =   0.0063492
        k(  282) = (  -0.4000000   0.0793651   0.1428571), wk =   0.0063492
        k(  283) = (  -0.4000000  -0.0634921   0.2857143), wk =   0.0063492
        k(  284) = (  -0.4000000  -0.2063492   0.4285714), wk =   0.0063492
        k(  285) = (  -0.4000000   0.6507937  -0.4285714), wk =   0.0063492
        k(  286) = (  -0.4000000   0.5079365  -0.2857143), wk =   0.0063492
        k(  287) = (  -0.4000000   0.3650794  -0.1428571), wk =   0.0063492
        k(  288) = (  -0.4000000  -0.0317460   0.1428571), wk =   0.0063492
        k(  289) = (  -0.4000000  -0.1746032   0.2857143), wk =   0.0063492
        k(  290) = (  -0.4000000  -0.3174603   0.4285714), wk =   0.0063492
        k(  291) = (  -0.4000000   0.5396825  -0.4285714), wk =   0.0063492
        k(  292) = (  -0.4000000   0.3968254  -0.2857143), wk =   0.0063492
        k(  293) = (  -0.4000000   0.2539683  -0.1428571), wk =   0.0063492

     Initial potential from superposition of free atoms

     starting charge  191.52609, renormalised to  192.00000
     Starting wfc are  204 randomized atomic wfcs

     Self-consistent Calculation

     iteration #  1     ecut=    45.00 Ry     beta=0.35
     Davidson diagonalization with overlap
     ethr =  1.00E-02,  avg # of iterations =  3.0

     Threshold (ethr) on eigenvalues was too large:
     Diagonalizing with lowered threshold

     Davidson diagonalization with overlap
     ethr =  2.85E-04,  avg # of iterations =  3.6

     total energy              =   -1547.20460562 Ry
     Harris-Foulkes estimate   =   -1547.40104406 Ry
     estimated scf accuracy    <       0.51972026 Ry

[...]

     total energy              =   -1547.36644884 Ry
     Harris-Foulkes estimate   =   -1547.36644648 Ry
     estimated scf accuracy    <       0.00000042 Ry

     iteration #  9     ecut=    45.00 Ry     beta=0.35
     Davidson diagonalization with overlap
     ethr =  2.18E-10,  avg # of iterations =  4.8

     End of self-consistent calculation

          k = 0.0000 0.0000 0.0000 ( 49643 PWs)   bands (ev):

   -18.9986 -18.9958 -18.9892 -18.9707 -18.9525 -18.9462 -18.9136 -18.8799
   -18.8740 -18.8555 -18.8517 -18.8419  -9.2603  -9.2193  -9.2072  -9.1883
    -9.1788  -9.1653  -9.1397  -9.1168  -9.1083  -9.0745  -9.0381  -9.0193
    -5.8970  -5.8746  -5.8705  -5.8577  -5.8490  -5.8263  -5.8188  -5.8161
    -5.8113  -5.8013  -5.7986  -5.7944  -5.7874  -5.7817  -5.7799  -5.7725
    -5.7720  -5.7626  -5.7508  -5.7450  -5.7390  -5.7202  -5.7136  -5.7089
    -5.7027  -5.6997  -5.6910  -5.6903  -5.6845  -5.6777  -5.6709  -5.6683
    -5.6637  -5.6530  -5.6519  -5.6457   0.2846   0.2870   0.4048   0.4232
     0.4359   0.4561   0.6443   0.6674   0.6800   0.6855   0.6933   0.7033
     0.7082   0.7178   0.7399   0.7463   0.7622   0.7700   0.7816   0.7896
     0.7916   0.8111   0.8194   0.8299   0.8393   0.8623   0.8770   0.8826
     0.8957   0.9218   0.9399   0.9619   0.9738   1.0537   1.0615   1.0694
     4.9238   5.5472   5.8466   5.8657   5.8931   5.9072   6.4260   6.4488
     6.6179   6.6482   6.7139   6.7186   6.7216   6.8588   6.8775   6.8828
     6.9389   6.9901   7.0399

     occupation numbers
     1.0000   1.0000   1.0000   1.0000   1.0000   1.0000   1.0000   1.0000
     1.0000   1.0000   1.0000   1.0000   1.0000   1.0000   1.0000   1.0000
     1.0000   1.0000   1.0000   1.0000   1.0000   1.0000   1.0000   1.0000
     1.0000   1.0000   1.0000   1.0000   1.0000   1.0000   1.0000   1.0000
     1.0000   1.0000   1.0000   1.0000   1.0000   1.0000   1.0000   1.0000
     1.0000   1.0000   1.0000   1.0000   1.0000   1.0000   1.0000   1.0000
     1.0000   1.0000   1.0000   1.0000   1.0000   1.0000   1.0000   1.0000
     1.0000   1.0000   1.0000   1.0000   1.0000   1.0000   1.0000   1.0000
     1.0000   1.0000   1.0000   1.0000   1.0000   1.0000   1.0000   1.0000
     1.0000   1.0000   1.0000   1.0000   1.0000   1.0000   1.0000   1.0000
     1.0000   1.0000   1.0000   1.0000   1.0000   1.0000   1.0000   1.0000
     1.0000   1.0000   1.0000   1.0000   1.0000   1.0000   1.0000   1.0000
     0.0000   0.0000   0.0000   0.0000   0.0000   0.0000   0.0000   0.0000
     0.0000   0.0000   0.0000   0.0000   0.0000   0.0000   0.0000   0.0000
     0.0000   0.0000   0.0000

[...]

          k = 0.0000-0.7913-0.2143 ( 49615 PWs)   bands (ev):

[...]

          k =-0.2000-0.2929 0.2143 ( 49659 PWs)   bands (ev):

[...]

          k =-0.4000 0.1044-0.2143 ( 49653 PWs)   bands (ev):

   -18.9986 -18.9958 -18.9892 -18.9707 -18.9525 -18.9462 -18.9135 -18.8799
   -18.8740 -18.8555 -18.8517 -18.8420  -9.2595  -9.2148  -9.2056  -9.1886
    -9.1777  -9.1666  -9.1378  -9.1184  -9.1118  -9.0757  -9.0393  -9.0204
    -5.8877  -5.8838  -5.8780  -5.8451  -5.8342  -5.8306  -5.8180  -5.8144
    -5.8083  -5.8029  -5.7983  -5.7941  -5.7858  -5.7834  -5.7764  -5.7728
    -5.7687  -5.7619  -5.7499  -5.7483  -5.7356  -5.7213  -5.7158  -5.7081
    -5.7066  -5.7003  -5.6966  -5.6893  -5.6845  -5.6773  -5.6743  -5.6707
    -5.6651  -5.6585  -5.6549  -5.6489   0.3527   0.3586   0.3737   0.3780
     0.5047   0.5302   0.5478   0.5677   0.6965   0.7039   0.7100   0.7188
     0.7257   0.7423   0.7457   0.7535   0.7656   0.7683   0.7765   0.7833
     0.7994   0.8170   0.8199   0.8428   0.8502   0.8621   0.8814   0.8925
     0.8955   0.9000   0.9308   0.9410   0.9464   0.9558   1.0346   1.0435
     5.2181   5.7848   5.8144   5.8409   6.0777   6.1210   6.2263   6.3673
     6.5498   6.5664   6.6224   6.6656   6.7141   6.7825   6.8030   6.8520
     6.9215   6.9398   7.0819

     occupation numbers
     1.0000   1.0000   1.0000   1.0000   1.0000   1.0000   1.0000   1.0000
     1.0000   1.0000   1.0000   1.0000   1.0000   1.0000   1.0000   1.0000
     1.0000   1.0000   1.0000   1.0000   1.0000   1.0000   1.0000   1.0000
     1.0000   1.0000   1.0000   1.0000   1.0000   1.0000   1.0000   1.0000
     1.0000   1.0000   1.0000   1.0000   1.0000   1.0000   1.0000   1.0000
     1.0000   1.0000   1.0000   1.0000   1.0000   1.0000   1.0000   1.0000
     1.0000   1.0000   1.0000   1.0000   1.0000   1.0000   1.0000   1.0000
     1.0000   1.0000   1.0000   1.0000   1.0000   1.0000   1.0000   1.0000
     1.0000   1.0000   1.0000   1.0000   1.0000   1.0000   1.0000   1.0000
     1.0000   1.0000   1.0000   1.0000   1.0000   1.0000   1.0000   1.0000
     1.0000   1.0000   1.0000   1.0000   1.0000   1.0000   1.0000   1.0000
     1.0000   1.0000   1.0000   1.0000   1.0000   1.0000   1.0000   1.0000
     0.0000   0.0000   0.0000   0.0000   0.0000   0.0000   0.0000   0.0000
     0.0000   0.0000   0.0000   0.0000   0.0000   0.0000   0.0000   0.0000
     0.0000   0.0000   0.0000

     the Fermi energy is     2.6117 ev

!    total energy              =   -1547.36645034 Ry
     Harris-Foulkes estimate   =   -1547.36644906 Ry
     estimated scf accuracy    <       0.00000003 Ry

     The total energy is the sum of the following terms:

     one-electron contribution =    -141.78471404 Ry
     hartree contribution      =     132.92685039 Ry
     xc contribution           =    -944.44327059 Ry
     ewald contribution        =    -594.06531610 Ry
     smearing contrib. (-TS)   =       0.00000000 Ry

     convergence has been achieved in   9 iterations

     Writing output data file aiida.save

     General routines

     Parallel routines

   This run was terminated on:  12: 0:14   2May2017

   JOB DONE.