     Program PWSCF v.6.1 (svn rev. 13369) starts on  8May2017 at 16:44:47

     Current dimensions of program PWSCF are:
     Max number of different atomic species (ntypx) = 10
     Max number of k-points (npk) =  40000
     Max angular momentum in pseudopotentials (lmaxx) =  3

     Subspace diagonalization in iterative solution of the eigenvalue problem:
     one sub-group per band group will be used

     bravais-lattice index     =            0
     lattice parameter (alat)  =       1.0000  a.u.
     unit-cell volume          =    8646.7719 (a.u.)^3
     number of atoms/cell      =           64
     number of atomic types    =            2
     number of electrons       =       266.00
     number of Kohn-Sham states=          160
     kinetic-energy cutoff     =      40.0000  Ry
     charge density cutoff     =     300.0000  Ry
     convergence threshold     =      1.0E-10
     mixing beta               =       0.7000
     number of iterations used =            8  plain     mixing
     Exchange-correlation      = SLA  PZ   NOGX NOGC ( 1  1  0  0 0 0)
     nstep                     =          100

     celldm(1)=   1.000000  celldm(2)=   0.000000  celldm(3)=   0.000000
     celldm(4)=   0.000000  celldm(5)=   0.000000  celldm(6)=   0.000000

     crystal axes: (cart. coord. in units of alat)
               a(1) = (  20.525071   0.000000   0.000000 )
               a(2) = (   0.000000  20.525071   0.000000 )
               a(3) = (   0.000000   0.000000  20.525071 )

     reciprocal axes: (cart. coord. in units 2 pi/alat)
               b(1) = (  0.048721  0.000000  0.000000 )
               b(2) = (  0.000000  0.048721  0.000000 )
               b(3) = (  0.000000  0.000000  0.048721 )

     PseudoPot. # 1 for Ge read from file:
     ./ge_lda_v1.uspp.F.UPF
     MD5 check sum: 575f587c0f86b3eee266efe92ef02c15
     Pseudo is Ultrasoft + core correction, Zval = 14.0
     Generated by new atomic code, or converted to UPF format
     Using radial grid of  873 points,  6 beta functions with:
                l(1) =   0
                l(2) =   0
                l(3) =   1
                l(4) =   1
                l(5) =   2
                l(6) =   2
     Q(r) pseudized with  8 coefficients,  rinner =    1.400   1.400   1.400
                                                       1.400   1.400

     PseudoPot. # 2 for Si read from file:
     ./si_lda_v1.uspp.F.UPF
     MD5 check sum: ca10e49b2835512e91ee5100d37237e0
     Pseudo is Ultrasoft + core correction, Zval =  4.0
     Generated by new atomic code, or converted to UPF format
     Using radial grid of  899 points,  6 beta functions with:
                l(1) =   0
                l(2) =   0
                l(3) =   1
                l(4) =   1
                l(5) =   2
                l(6) =   2
     Q(r) pseudized with  8 coefficients,  rinner =    0.900   0.900   0.900
                                                       0.900   0.900

     atomic species   valence    mass     pseudopotential
        Ge            14.00    72.61000     Ge( 1.00)
        Si             4.00    28.08550     Si( 1.00)

     24 Sym. Ops. (no inversion) found

   Cartesian axes

     site n.     atom                  positions (alat units)
         1           Ge  tau(   1) = (   0.0000000   0.0000000   0.0000000  )
         2           Si  tau(   2) = (   0.0000000   0.0000000  10.2625355  )
         3           Si  tau(   3) = (   0.0000000  10.2625355   0.0000000  )
         4           Si  tau(   4) = (   0.0000000  10.2625355  10.2625355  )
         5           Si  tau(   5) = (  10.2625355   0.0000000   0.0000000  )
         6           Si  tau(   6) = (  10.2625355   0.0000000  10.2625355  )
         7           Si  tau(   7) = (  10.2625355  10.2625355   0.0000000  )
         8           Si  tau(   8) = (  10.2625355  10.2625355  10.2625355  )
         9           Si  tau(   9) = (   0.0000000   5.1312678   5.1312678  )
        10           Si  tau(  10) = (   0.0000000   5.1312678  15.3938033  )
        11           Si  tau(  11) = (   0.0000000  15.3938033   5.1312678  )
        12           Si  tau(  12) = (   0.0000000  15.3938033  15.3938033  )
        13           Si  tau(  13) = (  10.2625355   5.1312678   5.1312678  )
        14           Si  tau(  14) = (  10.2625355   5.1312678  15.3938033  )
        15           Si  tau(  15) = (  10.2625355  15.3938033   5.1312678  )
        16           Si  tau(  16) = (  10.2625355  15.3938033  15.3938033  )
        17           Si  tau(  17) = (   5.1312678   0.0000000   5.1312678  )
        18           Si  tau(  18) = (   5.1312678   0.0000000  15.3938033  )
        19           Si  tau(  19) = (   5.1312678  10.2625355   5.1312678  )
        20           Si  tau(  20) = (   5.1312678  10.2625355  15.3938033  )
        21           Si  tau(  21) = (  15.3938033   0.0000000   5.1312678  )
        22           Si  tau(  22) = (  15.3938033   0.0000000  15.3938033  )
        23           Si  tau(  23) = (  15.3938033  10.2625355   5.1312678  )
        24           Si  tau(  24) = (  15.3938033  10.2625355  15.3938033  )
        25           Si  tau(  25) = (   5.1312678   5.1312678   0.0000000  )
        26           Si  tau(  26) = (   5.1312678   5.1312678  10.2625355  )
        27           Si  tau(  27) = (   5.1312678  15.3938033   0.0000000  )
        28           Si  tau(  28) = (   5.1312678  15.3938033  10.2625355  )
        29           Si  tau(  29) = (  15.3938033   5.1312678   0.0000000  )
        30           Si  tau(  30) = (  15.3938033   5.1312678  10.2625355  )
        31           Si  tau(  31) = (  15.3938033  15.3938033   0.0000000  )
        32           Si  tau(  32) = (  15.3938033  15.3938033  10.2625355  )
        33           Si  tau(  33) = (   7.6969016   7.6969016   2.5656339  )
        34           Si  tau(  34) = (   7.6969016   7.6969016  12.8281694  )
        35           Si  tau(  35) = (   7.6969016  17.9594371   2.5656339  )
        36           Si  tau(  36) = (   7.6969016  17.9594371  12.8281694  )
        37           Si  tau(  37) = (  17.9594371   7.6969016   2.5656339  )
        38           Si  tau(  38) = (  17.9594371   7.6969016  12.8281694  )
        39           Si  tau(  39) = (  17.9594371  17.9594371   2.5656339  )
        40           Si  tau(  40) = (  17.9594371  17.9594371  12.8281694  )
        41           Si  tau(  41) = (   7.6969016   2.5656339   7.6969016  )
        42           Si  tau(  42) = (   7.6969016   2.5656339  17.9594371  )
        43           Si  tau(  43) = (   7.6969016  12.8281694   7.6969016  )
        44           Si  tau(  44) = (   7.6969016  12.8281694  17.9594371  )
        45           Si  tau(  45) = (  17.9594371   2.5656339   7.6969016  )
        46           Si  tau(  46) = (  17.9594371   2.5656339  17.9594371  )
        47           Si  tau(  47) = (  17.9594371  12.8281694   7.6969016  )
        48           Si  tau(  48) = (  17.9594371  12.8281694  17.9594371  )
        49           Si  tau(  49) = (   2.5656339   7.6969016   7.6969016  )
        50           Si  tau(  50) = (   2.5656339   7.6969016  17.9594371  )
        51           Si  tau(  51) = (   2.5656339  17.9594371   7.6969016  )
        52           Si  tau(  52) = (   2.5656339  17.9594371  17.9594371  )
        53           Si  tau(  53) = (  12.8281694   7.6969016   7.6969016  )
        54           Si  tau(  54) = (  12.8281694   7.6969016  17.9594371  )
        55           Si  tau(  55) = (  12.8281694  17.9594371   7.6969016  )
        56           Si  tau(  56) = (  12.8281694  17.9594371  17.9594371  )
        57           Si  tau(  57) = (   2.5656339   2.5656339   2.5656339  )
        58           Si  tau(  58) = (   2.5656339   2.5656339  12.8281694  )
        59           Si  tau(  59) = (   2.5656339  12.8281694   2.5656339  )
        60           Si  tau(  60) = (   2.5656339  12.8281694  12.8281694  )
        61           Si  tau(  61) = (  12.8281694   2.5656339   2.5656339  )
        62           Si  tau(  62) = (  12.8281694   2.5656339  12.8281694  )
        63           Si  tau(  63) = (  12.8281694  12.8281694   2.5656339  )
        64           Si  tau(  64) = (  12.8281694  12.8281694  12.8281694  )

     number of k points=    10  gaussian smearing, width (Ry)=  0.0010
                       cart. coord. in units 2pi/alat
        k(    1) = (   0.0000000   0.0000000   0.0000000), wk =   0.0312500
        k(    2) = (   0.0000000   0.0000000   0.0121802), wk =   0.1875000
        k(    3) = (   0.0000000   0.0000000  -0.0243605), wk =   0.0937500
        k(    4) = (   0.0000000   0.0121802   0.0121802), wk =   0.3750000
        k(    5) = (   0.0000000   0.0121802  -0.0243605), wk =   0.3750000
        k(    6) = (   0.0000000  -0.0243605  -0.0243605), wk =   0.0937500
        k(    7) = (   0.0121802   0.0121802   0.0121802), wk =   0.2500000
        k(    8) = (   0.0121802   0.0121802  -0.0243605), wk =   0.3750000
        k(    9) = (   0.0121802  -0.0243605  -0.0243605), wk =   0.1875000
        k(   10) = (  -0.0243605  -0.0243605  -0.0243605), wk =   0.0312500

     Initial potential from superposition of free atoms

     starting charge  265.96130, renormalised to  266.00000
     Starting wfc are  261 randomized atomic wfcs

     Self-consistent Calculation

     iteration #  1     ecut=    40.00 Ry     beta=0.70
     Davidson diagonalization with overlap
     ethr =  1.00E-02,  avg # of iterations =  3.1

     Threshold (ethr) on eigenvalues was too large:
     Diagonalizing with lowered threshold

     Davidson diagonalization with overlap
     ethr =  6.96E-04,  avg # of iterations =  1.9

     total energy              =    -813.82290720 Ry
     Harris-Foulkes estimate   =    -814.46428915 Ry
     estimated scf accuracy    <       1.83007140 Ry

[...]

     End of self-consistent calculation

          k = 0.0000 0.0000 0.0000 ( 37073 PWs)   bands (ev):

   -18.2687 -18.2687 -18.2687 -18.2385 -18.2385  -5.9343  -4.9974  -4.8231
    -4.8231  -4.8231  -4.8211  -4.8211  -4.1145  -3.8627  -3.8627  -3.8627
    -3.8583  -3.8583  -3.8583  -3.8582  -3.8582  -3.8582  -3.8581  -3.8581
    -3.6103  -3.5669  -3.5669  -3.5669  -1.9433  -1.7641  -1.7641  -1.7641
    -1.7610  -1.7610  -1.6828  -1.5978  -1.5978  -1.5978  -1.5950  -1.5950
    -1.5950  -1.5943  -1.5943  -1.5943  -1.5941  -1.5941  -0.9551  -0.9376
    -0.9376  -0.9376   0.4467   0.5640   0.5640   0.5640   0.5675   0.5675
     0.5675   0.5684   0.5684   0.5709   0.5709   0.5709   2.1724   2.1724
     2.1724   2.1820   2.1820   2.1820   2.1829   2.1829   2.1829   2.1830
     2.1860   2.1860   2.2674   2.2731   2.2731   2.2731   2.2814   2.2814
     2.2814   2.2833   2.2833   2.2843   2.2843   2.2843   2.4687   2.5267
     2.5267   2.5303   2.5303   2.5303   3.2048   3.2048   3.2048   3.2049
     3.2049   3.2049   4.1649   4.1649   4.1649   4.1665   4.1665   4.1665
     4.1685   4.1685   4.1685   4.1772   4.1772   4.1772   4.7313   4.7313
     4.7313   4.7337   4.7337   4.7337   4.7338   4.7373   4.7373   4.7406
     4.7406   4.7406   4.8620   4.8620   4.8620   4.8653   4.8653   4.8710
[...]
     number of atomic types    =            2
     number of electrons       =       266.00
     number of Kohn-Sham states=          160
     kinetic-energy cutoff     =      40.0000  Ry
     charge density cutoff     =     300.0000  Ry
     convergence threshold     =      1.0E-12
     mixing beta               =       0.7000
     number of iterations used =            8  plain     mixing
     Exchange-correlation      = SLA  PZ   NOGX NOGC ( 1  1  0  0 0 0)

     celldm(1)=   1.000000  celldm(2)=   0.000000  celldm(3)=   0.000000
     celldm(4)=   0.000000  celldm(5)=   0.000000  celldm(6)=   0.000000

     crystal axes: (cart. coord. in units of alat)
               a(1) = (  20.419706   0.000000   0.000000 )
               a(2) = (   0.000000  20.419706   0.000000 )
               a(3) = (   0.000000   0.000000  20.419706 )

     reciprocal axes: (cart. coord. in units 2 pi/alat)
               b(1) = (  0.048972  0.000000  0.000000 )
               b(2) = (  0.000000  0.048972  0.000000 )
               b(3) = (  0.000000  0.000000  0.048972 )

     PseudoPot. # 1 for Ge read from file:
     ./ge_lda_v1.uspp.F.UPF
     MD5 check sum: 575f587c0f86b3eee266efe92ef02c15
     Pseudo is Ultrasoft + core correction, Zval = 14.0
     Generated by new atomic code, or converted to UPF format
     Using radial grid of  873 points,  6 beta functions with:
                l(1) =   0
                l(2) =   0
                l(3) =   1
                l(4) =   1
                l(5) =   2
                l(6) =   2
     Q(r) pseudized with  8 coefficients,  rinner =    1.400   1.400   1.400
                                                       1.400   1.400

     PseudoPot. # 2 for Si read from file:
     ./si_lda_v1.uspp.F.UPF
     MD5 check sum: ca10e49b2835512e91ee5100d37237e0
     Pseudo is Ultrasoft + core correction, Zval =  4.0
     Generated by new atomic code, or converted to UPF format
     Using radial grid of  899 points,  6 beta functions with:
                l(1) =   0
                l(2) =   0
                l(3) =   1
                l(4) =   1
                l(5) =   2
                l(6) =   2
     Q(r) pseudized with  8 coefficients,  rinner =    0.900   0.900   0.900
                                                       0.900   0.900

     atomic species   valence    mass     pseudopotential
        Ge            14.00    72.61000     Ge( 1.00)
        Si             4.00    28.08550     Si( 1.00)

     24 Sym. Ops. (no inversion) found

   Cartesian axes

     site n.     atom                  positions (alat units)
         1           Ge  tau(   1) = (   0.0000000  -0.0000000   0.0000000  )
         2           Si  tau(   2) = (   0.0000000   0.0000000  10.2098528  )
         3           Si  tau(   3) = (   0.0000000  10.2098528   0.0000000  )
         4           Si  tau(   4) = (   0.0000000  10.2098528  10.2098528  )
         5           Si  tau(   5) = (  10.2098528   0.0000000   0.0000000  )
         6           Si  tau(   6) = (  10.2098528  -0.0000000  10.2098528  )
         7           Si  tau(   7) = (  10.2098528  10.2098528   0.0000000  )
         8           Si  tau(   8) = (  10.2098528  10.2098528  10.2098528  )
         9           Si  tau(   9) = (  -0.0003465   5.1109360   5.1109360  )
        10           Si  tau(  10) = (   0.0003465   5.1109360  15.3087695  )
        11           Si  tau(  11) = (   0.0003465  15.3087695   5.1109360  )
        12           Si  tau(  12) = (  -0.0003465  15.3087695  15.3087695  )
        13           Si  tau(  13) = (  10.2096140   5.1049128   5.1049128  )
        14           Si  tau(  14) = (  10.2100915   5.1049128  15.3147927  )
        15           Si  tau(  15) = (  10.2100915  15.3147927   5.1049128  )
        16           Si  tau(  16) = (  10.2096140  15.3147927  15.3147927  )
        17           Si  tau(  17) = (   5.1109360  -0.0003465   5.1109360  )
        18           Si  tau(  18) = (   5.1109360   0.0003465  15.3087695  )
        19           Si  tau(  19) = (   5.1049128  10.2096140   5.1049128  )
        20           Si  tau(  20) = (   5.1049128  10.2100915  15.3147927  )
        21           Si  tau(  21) = (  15.3087695   0.0003465   5.1109360  )
        22           Si  tau(  22) = (  15.3087695  -0.0003465  15.3087695  )
        23           Si  tau(  23) = (  15.3147927  10.2100915   5.1049128  )
        24           Si  tau(  24) = (  15.3147927  10.2096140  15.3147927  )
        25           Si  tau(  25) = (   5.1109360   5.1109360  -0.0003465  )
        26           Si  tau(  26) = (   5.1049128   5.1049128  10.2096140  )
        27           Si  tau(  27) = (   5.1109360  15.3087695   0.0003465  )
        28           Si  tau(  28) = (   5.1049128  15.3147927  10.2100915  )
        29           Si  tau(  29) = (  15.3087695   5.1109360   0.0003465  )
        30           Si  tau(  30) = (  15.3147927   5.1049128  10.2100915  )
        31           Si  tau(  31) = (  15.3087695  15.3087695  -0.0003465  )
        32           Si  tau(  32) = (  15.3147927  15.3147927  10.2096140  )
        33           Si  tau(  33) = (   7.6596983   7.6596983   2.5511741  )
        34           Si  tau(  34) = (   7.6572883   7.6572883  12.7624173  )
        35           Si  tau(  35) = (   7.6572870  17.8678745   2.5518310  )
        36           Si  tau(  36) = (   7.6596983  17.8685314  12.7600073  )
        37           Si  tau(  37) = (  17.8678745   7.6572870   2.5518310  )
        38           Si  tau(  38) = (  17.8685314   7.6596983  12.7600073  )
        39           Si  tau(  39) = (  17.8344267  17.8344267   2.5852788  )
        40           Si  tau(  40) = (  17.8678745  17.8678745  12.7624186  )
        41           Si  tau(  41) = (   7.6596983   2.5511741   7.6596983  )
        42           Si  tau(  42) = (   7.6572870   2.5518310  17.8678745  )
        43           Si  tau(  43) = (   7.6572883  12.7624173   7.6572883  )
        44           Si  tau(  44) = (   7.6596983  12.7600073  17.8685314  )
        45           Si  tau(  45) = (  17.8678745   2.5518310   7.6572870  )
        46           Si  tau(  46) = (  17.8344267   2.5852788  17.8344267  )
        47           Si  tau(  47) = (  17.8685314  12.7600073   7.6596983  )
        48           Si  tau(  48) = (  17.8678745  12.7624186  17.8678745  )
        49           Si  tau(  49) = (   2.5511741   7.6596983   7.6596983  )
        50           Si  tau(  50) = (   2.5518310   7.6572870  17.8678745  )
        51           Si  tau(  51) = (   2.5518310  17.8678745   7.6572870  )
        52           Si  tau(  52) = (   2.5852788  17.8344267  17.8344267  )
        53           Si  tau(  53) = (  12.7624173   7.6572883   7.6572883  )
        54           Si  tau(  54) = (  12.7600073   7.6596983  17.8685314  )
        55           Si  tau(  55) = (  12.7600073  17.8685314   7.6596983  )
        56           Si  tau(  56) = (  12.7624186  17.8678745  17.8678745  )
        57           Si  tau(  57) = (   2.5852788   2.5852788   2.5852788  )
        58           Si  tau(  58) = (   2.5518310   2.5518310  12.7624186  )
        59           Si  tau(  59) = (   2.5518310  12.7624186   2.5518310  )
        60           Si  tau(  60) = (   2.5511741  12.7600073  12.7600073  )
        61           Si  tau(  61) = (  12.7624186   2.5518310   2.5518310  )
        62           Si  tau(  62) = (  12.7600073   2.5511741  12.7600073  )
        63           Si  tau(  63) = (  12.7600073  12.7600073   2.5511741  )
        64           Si  tau(  64) = (  12.7624173  12.7624173  12.7624173  )

     number of k points=    10  gaussian smearing, width (Ry)=  0.0010
                       cart. coord. in units 2pi/alat
        k(    1) = (   0.0000000   0.0000000   0.0000000), wk =   0.0312500
        k(    2) = (   0.0000000   0.0000000   0.0122431), wk =   0.1875000
        k(    3) = (   0.0000000   0.0000000  -0.0244862), wk =   0.0937500
        k(    4) = (   0.0000000   0.0122431   0.0122431), wk =   0.3750000
        k(    5) = (   0.0000000   0.0122431  -0.0244862), wk =   0.3750000
        k(    6) = (   0.0000000  -0.0244862  -0.0244862), wk =   0.0937500
        k(    7) = (   0.0122431   0.0122431   0.0122431), wk =   0.2500000
        k(    8) = (   0.0122431   0.0122431  -0.0244862), wk =   0.3750000
        k(    9) = (   0.0122431  -0.0244862  -0.0244862), wk =   0.1875000
        k(   10) = (  -0.0244862  -0.0244862  -0.0244862), wk =   0.0312500

     Initial potential from superposition of free atoms

     starting charge  265.96130, renormalised to  266.00000
     Starting wfc are  261 randomized atomic wfcs

     Writing output data file scf_b.save

     Self-consistent Calculation

[...]

     total energy              =    -813.93522903 Ry
     Harris-Foulkes estimate   =    -813.93522903 Ry
     estimated scf accuracy    <          2.9E-12 Ry

     iteration # 15     ecut=    40.00 Ry     beta=0.70
     Davidson diagonalization with overlap
     ethr =  1.00E-13,  avg # of iterations =  1.0

     End of self-consistent calculation

[...]

          k = 0.0122-0.0245-0.0245 ( 36276 PWs)   bands (ev):

[...]

          k =-0.0245-0.0245-0.0245 ( 36120 PWs)   bands (ev):

   -18.0590 -18.0590 -18.0590 -18.0307 -18.0307  -5.1804  -5.0448  -5.0448
    -5.0448  -5.0411  -5.0411  -5.0411  -5.0386  -3.4255  -3.0999  -3.0999
    -3.0999  -3.0971  -3.0971  -3.0971  -3.0954  -3.0954  -3.0914  -3.0914
    -3.0914  -3.0910  -3.0910  -3.0910  -3.0907  -3.0906  -3.0906  -3.0906
    -3.0900  -3.0900  -3.0872  -3.0872  -3.0872  -0.4673  -0.2234  -0.2234
    -0.2223  -0.2223  -0.2223  -0.2222  -0.2222  -0.2222  -0.2205  -0.2204
    -0.2204  -0.2204  -0.2171  -0.2171  -0.2171  -0.2151  -0.2151  -0.2131
    -0.2131  -0.2131  -0.1949  -0.1949  -0.1949   2.1905   2.2405   2.2443
     2.2443   2.2443   2.2543   2.2543   2.2543   2.5803   2.6026   2.6026
     2.6026   2.6074   2.6074   2.6074   2.6081   2.6081   2.6081   2.6088
     2.6088   2.6092   2.6104   2.6104   2.6104   2.6194   2.6194   2.6194
     2.6265   2.6265   2.6328   2.6328   2.6328   3.9682   3.9682   3.9682
     3.9733   3.9733   3.9751   3.9803   3.9803   3.9803   3.9823   3.9823
     3.9823   3.9823   3.9823   3.9823   3.9834   3.9866   3.9866   3.9877
     3.9877   3.9877   4.0213   4.0213   4.0213   5.4417   5.4417   5.4417
     5.4456   5.4456   5.4482   5.4482   5.4523   5.4523   5.4523   5.4529
     5.4529   5.4529   5.4972   5.4972   5.4972   7.5242   7.6245   7.6245
     7.6245   7.6286   7.6286   7.6286   7.6307   7.6307   7.6307   7.6312
     7.6312   7.6350   7.6350   7.6350   7.6362   7.6374   7.6374   7.6374
     7.6928   7.6928   7.6928   7.7249   7.7249   8.1321   8.1911   8.1911

     the Fermi energy is     6.5908 ev

!    total energy              =    -813.93522903 Ry
     Harris-Foulkes estimate   =    -813.93522903 Ry
     estimated scf accuracy    <          7.5E-13 Ry

     The total energy is the sum of the following terms:

     one-electron contribution =     -36.66676210 Ry
     hartree contribution      =     146.14440221 Ry
     xc contribution           =    -326.03169746 Ry
     ewald contribution        =    -597.38117167 Ry
     smearing contrib. (-TS)   =      -0.00000000 Ry

     convergence has been achieved in  15 iterations

     Forces acting on atoms (cartesian axes, Ry/au):

     atom    1 type  1   force =     0.00000000    0.00000000    0.00000000
     atom    2 type  2   force =     0.00000000    0.00000000    0.00000000
     atom    3 type  2   force =     0.00000000    0.00000000    0.00000000
     atom    4 type  2   force =     0.00000000    0.00000000    0.00000000
     atom    5 type  2   force =     0.00000000   -0.00000000    0.00000000
     atom    6 type  2   force =     0.00000000   -0.00000000    0.00000000
     atom    7 type  2   force =     0.00000000    0.00000000    0.00000000
     atom    8 type  2   force =     0.00000000    0.00000000    0.00000000
     atom    9 type  2   force =    -0.00003264    0.00045454    0.00045454
     atom   10 type  2   force =     0.00003264    0.00045454   -0.00045454
     atom   11 type  2   force =     0.00003264   -0.00045454    0.00045454
     atom   12 type  2   force =    -0.00003264   -0.00045454   -0.00045454
     atom   13 type  2   force =     0.00000466   -0.00004111   -0.00004111
     atom   14 type  2   force =    -0.00000466   -0.00004111    0.00004111
     atom   15 type  2   force =    -0.00000466    0.00004111   -0.00004111
     atom   16 type  2   force =     0.00000466    0.00004111    0.00004111
     atom   17 type  2   force =     0.00045454   -0.00003264    0.00045454
     atom   18 type  2   force =     0.00045454    0.00003264   -0.00045454
     atom   19 type  2   force =    -0.00004111    0.00000466   -0.00004111
     atom   20 type  2   force =    -0.00004111   -0.00000466    0.00004111
     atom   21 type  2   force =    -0.00045454    0.00003264    0.00045454
     atom   22 type  2   force =    -0.00045454   -0.00003264   -0.00045454
     atom   23 type  2   force =     0.00004111   -0.00000466   -0.00004111
     atom   24 type  2   force =     0.00004111    0.00000466    0.00004111
     atom   25 type  2   force =     0.00045454    0.00045454   -0.00003264
     atom   26 type  2   force =    -0.00004111   -0.00004111    0.00000466
     atom   27 type  2   force =     0.00045454   -0.00045454    0.00003264
     atom   28 type  2   force =    -0.00004111    0.00004111   -0.00000466
     atom   29 type  2   force =    -0.00045454    0.00045454    0.00003264
     atom   30 type  2   force =     0.00004111   -0.00004111   -0.00000466
     atom   31 type  2   force =    -0.00045454   -0.00045454   -0.00003264
     atom   32 type  2   force =     0.00004111    0.00004111    0.00000466
     atom   33 type  2   force =     0.00033399    0.00033399    0.00013843
     atom   34 type  2   force =    -0.00003491   -0.00003491    0.00003491
     atom   35 type  2   force =     0.00012182   -0.00003046    0.00003046
     atom   36 type  2   force =     0.00033399   -0.00013843   -0.00033399
     atom   37 type  2   force =    -0.00003046    0.00012182    0.00003046
     atom   38 type  2   force =    -0.00013843    0.00033399   -0.00033399
     atom   39 type  2   force =    -0.00026115   -0.00026115    0.00026115
     atom   40 type  2   force =    -0.00003046   -0.00003046   -0.00012182
     atom   41 type  2   force =     0.00033399    0.00013843    0.00033399
     atom   42 type  2   force =     0.00012182    0.00003046   -0.00003046
     atom   43 type  2   force =    -0.00003491    0.00003491   -0.00003491
     atom   44 type  2   force =     0.00033399   -0.00033399   -0.00013843
     atom   45 type  2   force =    -0.00003046    0.00003046    0.00012182
     atom   46 type  2   force =    -0.00026115    0.00026115   -0.00026115
     atom   47 type  2   force =    -0.00013843   -0.00033399    0.00033399
     atom   48 type  2   force =    -0.00003046   -0.00012182   -0.00003046
     atom   49 type  2   force =     0.00013843    0.00033399    0.00033399
     atom   50 type  2   force =     0.00003046    0.00012182   -0.00003046
     atom   51 type  2   force =     0.00003046   -0.00003046    0.00012182
     atom   52 type  2   force =     0.00026115   -0.00026115   -0.00026115
     atom   53 type  2   force =     0.00003491   -0.00003491   -0.00003491
     atom   54 type  2   force =    -0.00033399    0.00033399   -0.00013843
     atom   55 type  2   force =    -0.00033399   -0.00013843    0.00033399
     atom   56 type  2   force =    -0.00012182   -0.00003046   -0.00003046
     atom   57 type  2   force =     0.00026115    0.00026115    0.00026115
     atom   58 type  2   force =     0.00003046    0.00003046   -0.00012182
     atom   59 type  2   force =     0.00003046   -0.00012182    0.00003046
     atom   60 type  2   force =     0.00013843   -0.00033399   -0.00033399
     atom   61 type  2   force =    -0.00012182    0.00003046    0.00003046
     atom   62 type  2   force =    -0.00033399    0.00013843   -0.00033399
     atom   63 type  2   force =    -0.00033399   -0.00033399    0.00013843
     atom   64 type  2   force =     0.00003491    0.00003491    0.00003491

     Total force =     0.002992     Total SCF correction =     0.000002

     Computing stress (Cartesian axis) and pressure

          total   stress  (Ry/bohr**3)                   (kbar)     P=    0.09
   0.00000062   0.00000000   0.00000000          0.09      0.00      0.00
   0.00000000   0.00000062   0.00000000          0.00      0.09      0.00
   0.00000000   0.00000000   0.00000062          0.00      0.00      0.09

     Writing output data file scf_b.save

     General routines

     Parallel routines

   This run was terminated on:  16:51:27   8May2017

   JOB DONE.