     Program PWSCF v.6.5 starts on 10Mar2020 at 14:12: 7

     R & G space division:  proc/nbgrp/npool/nimage =      36
     Reading input from pw.in
     Message from routine read_cards :
     DEPRECATED: no units specified in CELL_PARAMETERS card
Warning: card 1 1 1  0 0 0 ignored

     Current dimensions of program PWSCF are:
     Max number of different atomic species (ntypx) = 10
     Max number of k-points (npk) =  40000
     Max angular momentum in pseudopotentials (lmaxx) =  3
     Message from routine cell_base_init:
     DEPRECATED: use true lattice parameter, not A to a.u. conversion factor

     gamma-point specific algorithms are used

     Message from routine setup:
     using ibrav=0 with symmetry is DISCOURAGED, use correct ibrav instead

     bravais-lattice index     =            0
     lattice parameter (alat)  =       1.0000  a.u.
     unit-cell volume          =   69174.1805 (a.u.)^3
     number of atoms/cell      =          512
     number of atomic types    =            2
     number of electrons       =      2058.00
     number of Kohn-Sham states=         1235
     kinetic-energy cutoff     =      40.0000  Ry
     charge density cutoff     =     600.0000  Ry
     convergence threshold     =      1.0E-10
     mixing beta               =       0.7000
     number of iterations used =            8  plain     mixing
     Exchange-correlation= SLA  PZ   NOGX NOGC
                           (   1   1   0   0   0   0   0)

     celldm(1)=   1.000000  celldm(2)=   0.000000  celldm(3)=   0.000000
     celldm(4)=   0.000000  celldm(5)=   0.000000  celldm(6)=   0.000000

     crystal axes: (cart. coord. in units of alat)
               a(1) = (  41.050143   0.000000   0.000000 )
               a(2) = (   0.000000  41.050143   0.000000 )
               a(3) = (   0.000000   0.000000  41.050143 )

     reciprocal axes: (cart. coord. in units 2 pi/alat)
               b(1) = (  0.024360  0.000000  0.000000 )
               b(2) = (  0.000000  0.024360  0.000000 )
               b(3) = (  0.000000  0.000000  0.024360 )

     PseudoPot. # 1 for Ge read from file:
     ./ge_lda_v1.uspp.F.UPF
     MD5 check sum: 575f587c0f86b3eee266efe92ef02c15
     Pseudo is Ultrasoft + core correction, Zval = 14.0
     Generated by new atomic code, or converted to UPF format
     Using radial grid of  873 points,  6 beta functions with:
                l(1) =   0
                l(2) =   0
                l(3) =   1
                l(4) =   1
                l(5) =   2
                l(6) =   2
     Q(r) pseudized with  8 coefficients,  rinner =    1.400   1.400   1.400
                                                       1.400   1.400

     PseudoPot. # 2 for Si read from file:
     ./si_lda_v1.uspp.F.UPF
     MD5 check sum: ca10e49b2835512e91ee5100d37237e0
     Pseudo is Ultrasoft + core correction, Zval =  4.0
     Generated by new atomic code, or converted to UPF format
     Using radial grid of  899 points,  6 beta functions with:
                l(1) =   0
                l(2) =   0
                l(3) =   1
                l(4) =   1
                l(5) =   2
                l(6) =   2
     Q(r) pseudized with  8 coefficients,  rinner =    0.900   0.900   0.900
                                                       0.900   0.900

     atomic species   valence    mass     pseudopotential
        Ge            14.00    72.61000     Ge( 1.00)
        Si             4.00    28.08550     Si( 1.00)

     24 Sym. Ops. (no inversion) found

   Cartesian axes

     site n.     atom                  positions (alat units)
         1           Ge  tau(   1) = (   0.0000000   0.0000000   0.0000000  )
         2           Si  tau(   2) = (  20.5250715  20.5250715  20.5250715  )
         3           Si  tau(   3) = (  20.5250715  20.5250715  30.7876073  )
         4           Si  tau(   4) = (  20.5250715  20.5250715   0.0000000  )
         5           Si  tau(   5) = (  20.5250715  20.5250715  10.2625357  )
         6           Si  tau(   6) = (  20.5250715  30.7876073  20.5250715  )
         7           Si  tau(   7) = (  20.5250715  30.7876073  30.7876073  )
         8           Si  tau(   8) = (  20.5250715  30.7876073   0.0000000  )
         9           Si  tau(   9) = (  20.5250715  30.7876073  10.2625357  )
        10           Si  tau(  10) = (  20.5250715   0.0000000  20.5250715  )
        11           Si  tau(  11) = (  20.5250715   0.0000000  30.7876073  )
        12           Si  tau(  12) = (  20.5250715   0.0000000   0.0000000  )
        13           Si  tau(  13) = (  20.5250715   0.0000000  10.2625357  )
        14           Si  tau(  14) = (  20.5250715  10.2625357  20.5250715  )
        15           Si  tau(  15) = (  20.5250715  10.2625357  30.7876073  )
        16           Si  tau(  16) = (  20.5250715  10.2625357   0.0000000  )
        17           Si  tau(  17) = (  20.5250715  10.2625357  10.2625357  )
        18           Si  tau(  18) = (  30.7876073  20.5250715  20.5250715  )
        19           Si  tau(  19) = (  30.7876073  20.5250715  30.7876073  )
        20           Si  tau(  20) = (  30.7876073  20.5250715   0.0000000  )
        21           Si  tau(  21) = (  30.7876073  20.5250715  10.2625357  )
        22           Si  tau(  22) = (  30.7876073  30.7876073  20.5250715  )
        23           Si  tau(  23) = (  30.7876073  30.7876073  30.7876073  )
        24           Si  tau(  24) = (  30.7876073  30.7876073   0.0000000  )
        25           Si  tau(  25) = (  30.7876073  30.7876073  10.2625357  )
        26           Si  tau(  26) = (  30.7876073   0.0000000  20.5250715  )
        27           Si  tau(  27) = (  30.7876073   0.0000000  30.7876073  )
        28           Si  tau(  28) = (  30.7876073   0.0000000   0.0000000  )
        29           Si  tau(  29) = (  30.7876073   0.0000000  10.2625357  )
        30           Si  tau(  30) = (  30.7876073  10.2625357  20.5250715  )
        31           Si  tau(  31) = (  30.7876073  10.2625357  30.7876073  )
        32           Si  tau(  32) = (  30.7876073  10.2625357   0.0000000  )
        33           Si  tau(  33) = (  30.7876073  10.2625357  10.2625357  )
        34           Si  tau(  34) = (   0.0000000  20.5250715  20.5250715  )
        35           Si  tau(  35) = (   0.0000000  20.5250715  30.7876073  )
        36           Si  tau(  36) = (   0.0000000  20.5250715   0.0000000  )
        37           Si  tau(  37) = (   0.0000000  20.5250715  10.2625357  )
        38           Si  tau(  38) = (   0.0000000  30.7876073  20.5250715  )
        39           Si  tau(  39) = (   0.0000000  30.7876073  30.7876073  )
        40           Si  tau(  40) = (   0.0000000  30.7876073   0.0000000  )
        41           Si  tau(  41) = (   0.0000000  30.7876073  10.2625357  )
        42           Si  tau(  42) = (   0.0000000   0.0000000  20.5250715  )
        43           Si  tau(  43) = (   0.0000000   0.0000000  30.7876073  )
        44           Si  tau(  44) = (   0.0000000   0.0000000  10.2625357  )
        45           Si  tau(  45) = (   0.0000000  10.2625357  20.5250715  )
        46           Si  tau(  46) = (   0.0000000  10.2625357  30.7876073  )
        47           Si  tau(  47) = (   0.0000000  10.2625357   0.0000000  )
        48           Si  tau(  48) = (   0.0000000  10.2625357  10.2625357  )
        49           Si  tau(  49) = (  10.2625357  20.5250715  20.5250715  )
        50           Si  tau(  50) = (  10.2625357  20.5250715  30.7876073  )
        51           Si  tau(  51) = (  10.2625357  20.5250715   0.0000000  )
        52           Si  tau(  52) = (  10.2625357  20.5250715  10.2625357  )
        53           Si  tau(  53) = (  10.2625357  30.7876073  20.5250715  )
        54           Si  tau(  54) = (  10.2625357  30.7876073  30.7876073  )
        55           Si  tau(  55) = (  10.2625357  30.7876073   0.0000000  )
        56           Si  tau(  56) = (  10.2625357  30.7876073  10.2625357  )
        57           Si  tau(  57) = (  10.2625357   0.0000000  20.5250715  )
        58           Si  tau(  58) = (  10.2625357   0.0000000  30.7876073  )
        59           Si  tau(  59) = (  10.2625357   0.0000000   0.0000000  )
        60           Si  tau(  60) = (  10.2625357   0.0000000  10.2625357  )
[...]
       498           Si  tau( 498) = (  12.8281697  23.0907054  33.3532412  )
       499           Si  tau( 499) = (  12.8281697  23.0907054   2.5656339  )
       500           Si  tau( 500) = (  12.8281697  23.0907054  12.8281697  )
       501           Si  tau( 501) = (  12.8281697  33.3532412  23.0907054  )
       502           Si  tau( 502) = (  12.8281697  33.3532412  33.3532412  )
       503           Si  tau( 503) = (  12.8281697  33.3532412   2.5656339  )
       504           Si  tau( 504) = (  12.8281697  33.3532412  12.8281697  )
       505           Si  tau( 505) = (  12.8281697   2.5656339  23.0907054  )
       506           Si  tau( 506) = (  12.8281697   2.5656339  33.3532412  )
       507           Si  tau( 507) = (  12.8281697   2.5656339   2.5656339  )
       508           Si  tau( 508) = (  12.8281697   2.5656339  12.8281697  )
       509           Si  tau( 509) = (  12.8281697  12.8281697  23.0907054  )
       510           Si  tau( 510) = (  12.8281697  12.8281697  33.3532412  )
       511           Si  tau( 511) = (  12.8281697  12.8281697   2.5656339  )
       512           Si  tau( 512) = (  12.8281697  12.8281697  12.8281697  )

     number of k points=     1  Gaussian smearing, width (Ry)=  0.0010
                       cart. coord. in units 2pi/alat
        k(    1) = (   0.0000000   0.0000000   0.0000000), wk =   2.0000000

     Initial potential from superposition of free atoms

     Self-consistent Calculation

     iteration #  1     ecut=    40.00 Ry     beta= 0.70

     Threshold (ethr) on eigenvalues was too large:
     Diagonalizing with lowered threshold

     total energy              =   -5126.82650614 Ry
     estimated scf accuracy    <      14.53670151 Ry

     Band energy sum           =      64.99726154 Ry

[...]

     total energy              =   -5128.14960992 Ry
     estimated scf accuracy    <          1.8E-10 Ry

[...]

     iteration # 20     ecut=    40.00 Ry     beta= 0.70

     End of self-consistent calculation

          k = 0.0000 0.0000 0.0000 (147954 PWs)   bands (ev):

   -18.3118 -18.3118 -18.3118 -18.2816 -18.2816  -5.9524  -5.7031  -5.6750
    -5.6750  -5.6750  -5.6749  -5.6749  -5.4554  -5.4078  -5.4078  -5.4078
    -5.4075  -5.4075  -5.4075  -5.4075  -5.4075  -5.4075  -5.4075  -5.4075
    -5.1772  -5.1482  -5.1482  -5.1482  -5.1480  -5.1479  -5.1479  -5.1479
    -4.8936  -4.8663  -4.8663  -4.8663  -4.8661  -4.8661  -4.7049  -4.6194
    -4.6194  -4.6194  -4.6184  -4.6184  -4.6184  -4.6184  -4.6184  -4.6184
    -4.6184  -4.6184  -4.6183  -4.6183  -4.6183  -4.6183  -4.6183  -4.6183
    -4.6183  -4.6183  -4.6183  -4.6182  -4.6182  -4.6182  -4.4473  -4.3916
    -4.3916  -4.3916  -4.3906  -4.3906  -4.3906  -4.3906  -4.3906  -4.3906
    -4.3906  -4.3906  -4.3906  -4.3905  -4.3905  -4.3905  -4.3905  -4.3905
    -4.3905  -4.3905  -4.3905  -4.3905  -4.3905  -4.3905  -3.9577  -3.9036
[...]
 | | |- sirius::Non_local_operator                                       2      19.72 us       0.00       0.35       9.86 us       5.25 us      14.48 us
 | | |- sirius::D_operator::initialize                                   1     341.78 us       0.00       6.00     341.78 us     341.78 us     341.78 us
 | | |- sirius::Q_operator::initialize                                   1     185.76 us       0.00       3.26     185.76 us     185.76 us     185.76 us
 | |
 | |- sirius::Band::initialize_subspace                                  1        8.51 s       1.85      38.78        8.51 s        8.51 s        8.51 s
 | | |- sirius::Hamiltonian_k                                            1      24.03 us       0.00       0.00      24.03 us      24.03 us      24.03 us
 | | | |- sirius::Local_operator::prepare_k                              1      22.75 us       0.00      94.66      22.75 us      22.75 us      22.75 us
 | | |- sirius::Band::initialize_subspace|kp                             1        8.51 s       1.85     100.00        8.51 s        8.51 s        8.51 s
 | | | |- sddk::matrix_storage::matrix_storage                           4       7.83 us       0.00       0.00       2.03 us     677.00 ns       3.08 us
 | | | |- sirius::Band::initialize_subspace|kp|wf                        1      76.25 ms       0.02       0.90      76.25 ms      76.25 ms      76.25 ms
 | | | | |- sirius::K_point::generate_atomic_wave_functions              1      59.58 ms       0.01      78.15      59.58 ms      59.58 ms      59.58 ms
 | | | |- sirius::Hamiltonian_k::apply_h_s                               1        6.86 s       1.49      80.66        6.86 s        6.86 s        6.86 s
 | | | | |- sirius::Local_operator::apply_h                              1        2.37 s       0.52      34.49        2.37 s        2.37 s        2.37 s
 | | | | | |- sddk::matrix_storage::remap_forward                        1       7.34 us       0.00       0.00       7.34 us       7.34 us       7.34 us
 | | | | | | |- sddk::matrix_storage::set_num_extra                      1       5.39 us       0.00      73.43       5.39 us       5.39 us       5.39 us
 | | | | | |- sddk::matrix_storage::set_num_extra                        1     520.00 ns       0.00       0.00     520.00 ns     520.00 ns     520.00 ns
 | | | | | |- sddk::matrix_storage::remap_backward                       1      14.55 us       0.00       0.00      14.55 us      14.55 us      14.55 us
 | | | | |- sirius::Beta_projectors_base::inner                          2        1.73 s       0.38      25.24     866.09 ms     827.35 ms     904.84 ms
 | | | | | |- sirius::Beta_projectors_base::inner|comm                   2     399.11 ms       0.09      23.04     199.55 ms     153.98 ms     245.13 ms
 | | | | |- sirius::Non_local_operator::apply                            4        2.75 s       0.60      40.03     684.78 ms     682.72 ms     694.58 ms
 | | | |- sirius::Band::set_subspace_mtrx                                2     705.60 ms       0.15       8.29     352.80 ms     320.65 ms     384.95 ms
 | | | | |- sddk::inner                                                  2     705.42 ms       0.15      99.97     352.71 ms     320.57 ms     384.85 ms
 | | | | | |- sddk::inner|local                                         18     553.45 ms       0.12      78.46       2.92 ms      72.71 us      68.03 ms
 | | | | | |- sddk::inner|store                                         18     151.72 ms       0.03      21.51       2.14 ms       1.40 us      78.09 ms
 | | | |- Eigensolver_scalapack|pdsygvx                                  1     535.69 ms       0.12       6.30     535.69 ms     535.69 ms     535.69 ms
 | | | |- sddk::transform                                                1     304.46 ms       0.07       3.58     304.46 ms     304.46 ms     304.46 ms
 | | | | |- sddk::transform|init                                         1      48.10 ms       0.01      15.80      48.10 ms      48.10 ms      48.10 ms
 | | | | |- sddk::transform|local                                        2     162.96 ms       0.04      53.52      81.48 ms       5.95 ms     157.01 ms
 |
 |- qe|electrons                                                         1      433.58 s      94.35      94.35      433.58 s      433.58 s      433.58 s
 | |- sirius::Hamiltonian0                                              21      69.07 ms       0.02       0.02       3.05 ms       2.93 ms       5.72 ms
 | | |- sirius::Local_operator                                          21      48.20 ms       0.01      69.79       2.05 ms       1.95 ms       4.69 ms
 | | | |- sirius::Smooth_periodic_function                              21       6.75 ms       0.00      14.00     313.53 us     308.59 us     364.36 us
 | | | |- sirius::Smooth_periodic_function::fft_transform               21      38.07 ms       0.01      78.99       1.57 ms       1.45 ms       4.17 ms
 | | |- sirius::Non_local_operator                                      42     454.99 us       0.00       0.66      11.03 us       5.02 us      23.20 us
 | | |- sirius::D_operator::initialize                                  21       6.49 ms       0.00       9.40     302.11 us     301.06 us     397.90 us
 | | |- sirius::Q_operator::initialize                                  21       4.08 ms       0.00       5.90     188.83 us     188.31 us     277.87 us
 | |
 | |- sirius::Band::solve                                               21      318.09 s      69.22      73.36       13.91 s        5.01 s       40.46 s
 | | |- sirius::Hamiltonian_k                                           21     482.18 us       0.00       0.00      22.56 us      20.79 us      34.50 us
 | | | |- sirius::Local_operator::prepare_k                             21     449.47 us       0.00      93.22      20.83 us      19.78 us      32.64 us
 | | |- sirius::Band::diag_pseudo_potential_davidson                    21      318.09 s      69.22     100.00       13.91 s        5.01 s       40.46 s
 | | | |- sirius::Band::diag_pseudo_potential_davidson|alloc            21     398.01 us       0.00       0.00      18.05 us      15.66 us      32.43 us
 | | | | |- sddk::matrix_storage::matrix_storage                       126     124.10 us       0.00      31.18     803.00 ns     433.00 ns       2.75 us
 | | | |- sirius::Hamiltonian_k::get_h_o_diag                           21     269.49 ms       0.06       0.08      12.82 ms      12.74 ms      13.01 ms
 | | | |- sirius::Band::diag_pseudo_potential_davidson|iter             21      317.82 s      69.16      99.92       13.90 s        4.99 s       40.45 s
 | | | | |- sirius::Hamiltonian_k::apply_h_s                           100      176.46 s      38.40      55.52        1.14 s      60.96 ms        3.93 s
 | | | | | |- sirius::Local_operator::apply_h                          100       65.75 s      14.31      37.26     338.29 ms       1.32 ms        1.60 s
 | | | | | | |- sddk::matrix_storage::remap_forward                    100     358.24 us       0.00       0.00       2.99 us       1.97 us      12.36 us
 | | | | | | | |- sddk::matrix_storage::set_num_extra                  100     317.49 us       0.00      88.63       2.55 us       1.69 us      11.97 us
 | | | | | | |- sddk::matrix_storage::set_num_extra                    100      74.17 us       0.00       0.00     732.50 ns     409.00 ns       1.28 us
 | | | | | | |- sddk::matrix_storage::remap_backward                   100      59.47 us       0.00       0.00     518.50 ns     252.00 ns      10.94 us
 | | | | | |- sirius::Beta_projectors_base::inner                      200       41.17 s       8.96      23.33     134.41 ms       9.94 ms     504.41 ms
 | | | | | | |- sirius::Beta_projectors_base::inner|comm               200        8.53 s       1.86      20.73      24.88 ms     162.30 us     144.08 ms
 | | | | | |- sirius::Non_local_operator::apply                        400       69.06 s      15.03      39.14     134.34 ms       9.80 ms     446.68 ms
 | | | | |- sddk::orthogonalize                                        100       45.66 s       9.94      14.37     394.21 ms      11.24 ms        1.51 s
 | | | | | |- sddk::inner                                              179       11.55 s       2.51      25.29      28.47 ms     114.44 us     437.99 ms
 | | | | | | |- sddk::inner|local                                      491        8.11 s       1.77      70.26       7.97 ms      17.14 us      76.93 ms
 | | | | | | |- sddk::inner|store                                      491        3.43 s       0.75      29.68     508.03 us     411.00 ns     298.51 ms
 | | | | | |- sddk::orthogonalize|potrf                                100     303.52 ms       0.07       0.66       2.30 ms      88.39 us       9.99 ms
 | | | | | |- sddk::orthogonalize|trtri                                100     275.62 ms       0.06       0.60     552.88 us      51.96 us       9.94 ms
 | | | | | |- sddk::transform                                          379       31.41 s       6.84      68.79      38.52 ms      33.88 us     730.92 ms
 | | | | | | |- sddk::transform|init                                   379        2.64 s       0.57       8.41       2.88 ms       2.24 us      33.13 ms
 | | | | | | |- sddk::transform|local                                  738       23.77 s       5.17      75.67      10.95 ms       5.39 us     166.02 ms
 | | | | |- sirius::Band::set_subspace_mtrx                            100        9.39 s       2.04       2.96      75.69 ms       2.95 ms     343.45 ms
 | | | | | |- sddk::inner                                              100        9.34 s       2.03      99.46      75.28 ms       2.80 ms     342.62 ms
 | | | | | | |- sddk::inner|local                                      406        8.07 s       1.76      86.34      12.39 ms     389.79 us      75.52 ms
 | | | | | | |- sddk::inner|store                                      406        1.27 s       0.28      13.61     508.83 us     387.00 ns      22.60 ms
 | | | | |- sirius::Band::diag_pseudo_potential_davidson|evp           100       65.31 s      14.21      20.55     547.91 ms     183.53 ms        1.58 s
 | | | | | |- Eigensolver_scalapack|pdsyevx                            100       65.31 s      14.21     100.00     547.91 ms     183.53 ms        1.58 s
 | | | | |- sirius::residuals                                          100       14.56 s       3.17       4.58     110.80 ms      12.35 us     531.30 ms
 | | | | | |- sddk::transform                                           84       13.07 s       2.84      89.80     158.46 ms      13.04 ms     496.66 ms
 | | | | | | |- sddk::transform|init                                    84     939.56 ms       0.20       7.19       6.62 ms      23.96 us      28.27 ms
 | | | | | | |- sddk::transform|local                                  304       10.26 s       2.23      78.52      17.72 ms     549.98 us     152.52 ms
 | | | | | |- sirius::normalized_preconditioned_residuals               84        1.30 s       0.28       8.92       8.00 ms     298.11 us      42.98 ms
 | | | | |- sirius::Band::diag_pseudo_potential_davidson|update_phi     21        5.95 s       1.30       1.87     294.85 ms     133.12 ms     507.81 ms
 | | | | | |- sddk::transform                                           21        5.95 s       1.30     100.00     294.84 ms     133.11 ms     507.80 ms
 | | | | | | |- sddk::transform|init                                    21     296.71 ms       0.06       4.98      14.14 ms      14.06 ms      14.24 ms
 | | | | | | |- sddk::transform|local                                   38        4.26 s       0.93      71.60     127.67 ms      34.18 ms     157.73 ms
 | | |- sirius::K_point_set::sync_band_energies                         21     460.67 us       0.00       0.00      21.70 us      16.95 us      31.65 us
 | |
 | |- qe|sum_band                                                       21       62.94 s      13.70      14.52        2.99 s        2.96 s        3.07 s
 | | |- sirius::Density::generate                                       21       54.46 s      11.85      86.52        2.58 s        2.56 s        2.65 s
 | | | |- sirius::Density::generate_valence                             21       54.46 s      11.85     100.00        2.58 s        2.56 s        2.65 s
 | | | | |- sddk::matrix_storage::remap_forward                         21     157.58 us       0.00       0.00       6.57 us       5.07 us      20.35 us
 | | | | | |- sddk::matrix_storage::set_num_extra                       21     133.00 us       0.00      84.41       6.08 us       4.78 us       9.02 us
 | | | | |- sirius::Density::add_k_point_contribution_dm                21       15.34 s       3.34      28.17     728.35 ms     721.22 ms     773.27 ms
 | | | | | |- sirius::Beta_projectors_base::inner                       42       15.32 s       3.33      99.84     363.88 ms     354.98 ms     415.34 ms
 | | | | | | |- sirius::Beta_projectors_base::inner|comm                42        3.12 s       0.68      20.38      73.99 ms      62.24 ms     126.22 ms
 | | | | |- sirius::Density::add_k_point_contribution_rg                21       15.05 s       3.27      27.63     709.06 ms     690.61 ms     769.69 ms
 | | | | |- sirius::Smooth_periodic_function::fft_transform             21      25.74 ms       0.01       0.05       1.21 ms       1.17 ms       1.49 ms
 | | | | |- sirius::Density::augment                                    21       23.86 s       5.19      43.81        1.14 s        1.09 s        1.20 s
 | | | | | |- sirius::Density::generate_rho_aug                         21       23.86 s       5.19      99.99        1.14 s        1.09 s        1.20 s
 | | | | | | |- sirius::Density::generate_rho_aug|gemm                  42        8.37 s       1.82      35.10     198.26 ms      48.78 ms     352.36 ms
 | | | | | | |- sirius::Density::generate_rho_aug|sum                   42        3.62 s       0.79      15.19      86.23 ms      84.30 ms      86.99 ms
 | | |- sirius_api::sirius_get_pw_coeffs                                21        6.45 s       1.40      10.25     301.84 ms     258.30 ms     353.28 ms
 | | | |- sirius::Smooth_periodic_function::gather_f_pw                 21        6.11 s       1.33      94.72     285.70 ms     242.18 ms     337.09 ms
 | | |- qe|sym_rho                                                      21      39.10 us       0.00       0.00       1.62 us       1.55 us       6.11 us
 | |
 | |- qe|mix                                                            21        1.19 s       0.26       0.28      62.93 ms     531.23 us      68.30 ms
 | |- sirius_api::sirius_set_pw_coeffs                                  20       26.79 s       5.83       6.18        1.30 s        1.26 s        1.52 s
 | | |- sirius::Smooth_periodic_function::fft_transform                 20     227.25 ms       0.05       0.85      11.39 ms      10.95 ms      11.63 ms
 | |
 | |- qe|newd                                                           20       22.03 s       4.79       5.08        1.10 s        1.09 s        1.11 s
 | | |- sirius::Potential::generate_D_operator_matrix                   20       21.99 s       4.79      99.83        1.10 s        1.09 s        1.11 s
 |
 |- sirius_api::sirius_get_wave_functions                                1        2.09 s       0.46       0.46        2.09 s        2.09 s        2.09 s
 | |- sddk::matrix_storage::matrix_storage                               1      18.91 us       0.00       0.00      18.91 us      18.91 us      18.91 us
 |
 |- qe|ions                                                              1        1.26 s       0.27       0.27        1.26 s        1.26 s        1.26 s
 | |- sirius_api::sirius_set_pw_coeffs                                   1        1.26 s       0.27      99.92        1.26 s        1.26 s        1.26 s
 | | |- sirius::Smooth_periodic_function::fft_transform                  1      11.52 ms       0.00       0.91      11.52 ms      11.52 ms      11.52 ms
 |
 |- qe|punch                                                             1     829.00 ns       0.00       0.00     829.00 ns     829.00 ns     829.00 ns
 |- sirius::finalize                                                     1      20.02 us       0.00       0.00      20.02 us      20.02 us      20.02 us

Batch Job Summary Report for Job "test_scf" (20933507) on daint
2020-03-10T14:11:21 2020-03-10T14:11:21 2020-03-10T14:11:46 2020-03-10T14:19:48   00:08:02   00:20:00
Username    Account     Partition   NNodes   Energy
antonk      csstaff     normal           9    1.23M joules

This job did not utilize any GPUs

Scratch File System        Files       Quota
/scratch/snx3000            2632     1000000