     Program PWSCF v.6.0 (svn rev. 13079) starts on  1Jun2017 at 17: 1:33

     Current dimensions of program PWSCF are:
     Max number of different atomic species (ntypx) = 10
     Max number of k-points (npk) =  40000
     Max angular momentum in pseudopotentials (lmaxx) =  3

     Subspace diagonalization in iterative solution of the eigenvalue problem:
     one sub-group per band group will be used

     bravais-lattice index     =            0
     lattice parameter (alat)  =      41.8741  a.u.
     unit-cell volume          =   38938.9232 (a.u.)^3
     number of atoms/cell      =           96
     number of atomic types    =            2
     number of electrons       =       768.00
     number of Kohn-Sham states=          461
     kinetic-energy cutoff     =      45.0000  Ry
     charge density cutoff     =     360.0000  Ry
     convergence threshold     =      9.6E-07
     mixing beta               =       0.3000
     number of iterations used =            8  plain     mixing
     Exchange-correlation      = SLA  PW   PBE  PBE ( 1  4  3  4 0 0)

     celldm(1)=  41.874139  celldm(2)=   0.000000  celldm(3)=   0.000000
     celldm(4)=   0.000000  celldm(5)=   0.000000  celldm(6)=   0.000000

     crystal axes: (cart. coord. in units of alat)
               a(1) = (   1.000000   0.000000   0.000000 )
               a(2) = (  -0.500000   0.707107  -0.500000 )
               a(3) = (   0.000000   0.000000   0.750000 )

     reciprocal axes: (cart. coord. in units 2 pi/alat)
               b(1) = (  1.000000  0.707107  0.000000 )
               b(2) = (  0.000000  1.414214  0.000000 )
               b(3) = (  0.000000  0.942809  1.333333 )

     PseudoPot. # 1 for Cs read from file:
     ./pseudo/Cs_pbe_v1.uspp.F.UPF
     MD5 check sum: 3476d69cb178dfad3ffaa59df4e07ca4
     Pseudo is Ultrasoft + core correction, Zval =  9.0
     Generated by new atomic code, or converted to UPF format
     Using radial grid of  905 points,  6 beta functions with:
                l(1) =   0
                l(2) =   0
                l(3) =   1
                l(4) =   1
                l(5) =   2
                l(6) =   2
     Q(r) pseudized with  6 coefficients,  rinner =    1.500   1.500   1.500
                                                       1.500   1.500

     PseudoPot. # 2 for I  read from file:
     ./pseudo/I_pbe_v1.uspp.F.UPF
     MD5 check sum: 51366c2fb896752a147e77acbb9f6bcb
     Pseudo is Ultrasoft + core correction, Zval =  7.0
     Generated by new atomic code, or converted to UPF format
     Using radial grid of  893 points,  6 beta functions with:
                l(1) =   0
                l(2) =   0
                l(3) =   1
                l(4) =   1
                l(5) =   2
                l(6) =   2
     Q(r) pseudized with  8 coefficients,  rinner =    1.500   1.500   1.500
                                                       1.500   1.500

     atomic species   valence    mass     pseudopotential
        Cs             9.00   132.90545     Cs( 1.00)
        I              7.00   126.90447     I ( 1.00)

     No symmetry found

                                    s                        frac. trans.

      isym =  1     identity

 cryst.   s( 1) = (     1          0          0      )
                  (     0          1          0      )
                  (     0          0          1      )

 cart.    s( 1) = (  1.0000000  0.0000000  0.0000000 )
                  (  0.0000000  1.0000000  0.0000000 )
                  (  0.0000000  0.0000000  1.0000000 )

   Cartesian axes

     site n.     atom                  positions (alat units)
         1           Cs  tau(   1) = (   0.5016851   0.7040171   0.2491946  )
         2           Cs  tau(   2) = (  -0.0005245   0.0034273   0.2489938  )
         3           Cs  tau(   3) = (   0.9976400   0.0025432   0.5009983  )
         4           Cs  tau(   4) = (  -0.1266605   0.1799144  -0.1256570  )
         5           Cs  tau(   5) = (  -0.1230821   0.1761033   0.1220163  )
         6           Cs  tau(   6) = (   0.8718588   0.1755469   0.3737137  )
         7           Cs  tau(   7) = (  -0.2465488   0.3531336  -0.2490267  )
         8           Cs  tau(   8) = (  -0.2469086   0.3552182   0.0008401  )
         9           Cs  tau(   9) = (   0.7509833   0.3504877   0.2516336  )
        10           Cs  tau(  10) = (  -0.3723321   0.5284383  -0.3734710  )
        11           Cs  tau(  11) = (   0.6249649   0.5278950  -0.1223348  )
        12           Cs  tau(  12) = (  -0.3723780   0.5323210   0.1264817  )
        13           Cs  tau(  13) = (   0.2499698   0.0014877   0.7467106  )
        14           Cs  tau(  14) = (  -0.2505832   0.7056539  -0.2532532  )
        15           Cs  tau(  15) = (   0.2464527   0.0001094   0.5006624  )
        16           Cs  tau(  16) = (   0.1229119   0.1764942  -0.1220684  )
        17           Cs  tau(  17) = (   0.1283246   0.1780043   0.1256887  )
        18           Cs  tau(  18) = (   0.1242509   0.1799174   0.3766153  )
        19           Cs  tau(  19) = (  -0.0026662   0.3534403  -0.2475684  )
        20           Cs  tau(  20) = (   0.0005214   0.3569910  -0.0009723  )
        21           Cs  tau(  21) = (   0.0010626   0.3568839   0.2490983  )
        22           Cs  tau(  22) = (  -0.1272216   0.5281254   0.3732005  )
        23           Cs  tau(  23) = (  -0.1283069   0.5295110  -0.1261949  )
        24           Cs  tau(  24) = (  -0.1262485   0.5307037   0.1216331  )
        25           Cs  tau(  25) = (   0.4968421   0.0001297   0.7482549  )
        26           Cs  tau(  26) = (  -0.0005299   0.7062776  -0.2465264  )
        27           Cs  tau(  27) = (  -0.0000854   0.7038452  -0.0015457  )
        28           Cs  tau(  28) = (   0.3754984   0.1756729   0.6215989  )
        29           Cs  tau(  29) = (   0.3782012   0.1756421   0.1262245  )
        30           Cs  tau(  30) = (   0.3782557   0.1761927   0.3764469  )
        31           Cs  tau(  31) = (   0.2512724   0.3553727   0.4971530  )
        32           Cs  tau(  32) = (   0.2509133   0.3558638   0.0026195  )
        33           Cs  tau(  33) = (   0.2487434   0.3549424   0.2530864  )
        34           Cs  tau(  34) = (   0.1279374   0.5317215  -0.3734285  )
        35           Cs  tau(  35) = (   0.1245123   0.5314896  -0.1283841  )
        36           Cs  tau(  36) = (   0.1285506   0.5298483   0.1254421  )
        37           Cs  tau(  37) = (   0.7487817   0.0028411  -0.0018650  )
        38           Cs  tau(  38) = (   0.2487220   0.7063448  -0.2532894  )
        39           Cs  tau(  39) = (   0.2475146   0.7046176  -0.0008130  )
        40           Cs  tau(  40) = (   0.6242190   0.1793930  -0.1226380  )
        41           Cs  tau(  41) = (   0.6283201   0.1780358   0.1243474  )
        42           Cs  tau(  42) = (   0.6253221   0.1795927   0.3727637  )
        43           Cs  tau(  43) = (   0.4977911   0.3515730   0.4979426  )
        44           Cs  tau(  44) = (   0.4997217   0.3521028  -0.0032943  )
        45           Cs  tau(  45) = (   0.4980013   0.3507794   0.2488405  )
        46           Cs  tau(  46) = (   0.3743844   0.5338285  -0.3743547  )
        47           Cs  tau(  47) = (   0.3770900   0.5327217  -0.1232836  )
        48           Cs  tau(  48) = (   0.3716294   0.5313523   0.1242072  )
        49           I   tau(  49) = (   0.1246418   0.0007364   0.1285162  )
        50           I   tau(  50) = (  -0.3769410   0.7061880  -0.1220979  )
        51           I   tau(  51) = (   0.1228655   0.0020278   0.6229105  )
        52           I   tau(  52) = (  -0.0029967   0.1778618   0.0016961  )
        53           I   tau(  53) = (   0.0031678   0.1783675   0.2506847  )
        54           I   tau(  54) = (  -0.0020752   0.1747839   0.5021810  )
        55           I   tau(  55) = (  -0.1259705   0.3554435  -0.1220811  )
        56           I   tau(  56) = (  -0.1261629   0.3550341   0.1280805  )
        57           I   tau(  57) = (  -0.1218073   0.3526653   0.3735674  )
        58           I   tau(  58) = (  -0.2529614   0.5304030  -0.2520638  )
        59           I   tau(  59) = (  -0.2500928   0.5288952  -0.0033116  )
        60           I   tau(  60) = (  -0.2530856   0.5284985   0.2503983  )
[...]
        82           I   tau(  82) = (   0.2481170   0.5299536  -0.2469427  )
        83           I   tau(  83) = (   0.2514136   0.5336256   0.0004193  )
        84           I   tau(  84) = (   0.2494774   0.5330127   0.2523590  )
        85           I   tau(  85) = (   0.8721785   0.0021154   0.1242265  )
        86           I   tau(  86) = (   0.3774073   0.7049347  -0.1265878  )
        87           I   tau(  87) = (   0.3728705   0.7060050   0.1223008  )
        88           I   tau(  88) = (   0.7535317   0.1774073   0.0004042  )
        89           I   tau(  89) = (   0.7510157   0.1797323   0.2481925  )
        90           I   tau(  90) = (   0.7506936   0.1757246   0.4966168  )
        91           I   tau(  91) = (   0.6252266   0.3522347  -0.1283532  )
        92           I   tau(  92) = (   0.6242837   0.3545953   0.1216183  )
        93           I   tau(  93) = (   0.6243591   0.3535690   0.3714471  )
        94           I   tau(  94) = (   0.5028678   0.5294571  -0.2520119  )
        95           I   tau(  95) = (   0.5003205   0.5335073   0.0016843  )
        96           I   tau(  96) = (   0.4976583   0.5317994   0.2523220  )

   Crystallographic axes

     site n.     atom                  positions (cryst. coord.)
         1           Cs  tau(   1) = (  0.9995004  0.9956306  0.9960132  )
         2           Cs  tau(   2) = (  0.0018990  0.0048470  0.3352230  )
         3           Cs  tau(   3) = (  0.9994383  0.0035967  0.6703955  )
         4           Cs  tau(   4) = (  0.0005582  0.2544374  0.0020823  )
         5           Cs  tau(   5) = (  0.0014417  0.2490477  0.3287202  )
         6           Cs  tau(   6) = (  0.9959892  0.2482608  0.6637921  )
         7           Cs  tau(   7) = (  0.0031544  0.4994064  0.0009020  )
         8           Cs  tau(   8) = (  0.0042686  0.5023543  0.3360231  )
         9           Cs  tau(   9) = (  0.9988155  0.4956644  0.6659543  )
        10           Cs  tau(  10) = (  0.0013303  0.7473247  0.0002551  )
        11           Cs  tau(  11) = (  0.9982431  0.7465563  0.3345911  )
        12           Cs  tau(  12) = (  0.0040298  0.7528156  0.6705194  )
        13           Cs  tau(  13) = (  0.2510217  0.0021039  0.9970167  )
        14           Cs  tau(  14) = (  0.2483895  0.9979453  0.3276259  )
        15           Cs  tau(  15) = (  0.2465300  0.0001546  0.6676530  )
        16           Cs  tau(  16) = (  0.2477121  0.2496004  0.0036424  )
        17           Cs  tau(  17) = (  0.2541927  0.2517361  0.3354090  )
        18           Cs  tau(  18) = (  0.2514717  0.2544416  0.6717815  )
        19           Cs  tau(  19) = (  0.2472538  0.4998401  0.0031355  )
        20           Cs  tau(  20) = (  0.2529521  0.5048615  0.3352779  )
        21           Cs  tau(  21) = (  0.2534176  0.5047100  0.6686044  )
[...]
    -5.7557  -5.7546  -5.7529  -5.7504  -5.7503  -5.7484  -5.7482  -5.7470
    -5.7452  -5.7444  -5.7426  -5.7409  -5.7398  -5.7384  -5.7375  -5.7370
    -5.7361  -5.7346  -5.7338  -5.7330  -5.7327  -5.7310  -5.7301  -5.7292
    -5.7286  -5.7263  -5.7256  -5.7248  -5.7234  -5.7228  -5.7212  -5.7201
    -5.7200  -5.7188  -5.7169  -5.7156  -5.7154  -5.7138  -5.7125  -5.7112
    -5.7109  -5.7084  -5.7080  -5.7062  -5.7048  -5.7030  -5.7027  -5.7003
    -5.6992  -5.6964  -5.6944  -5.6930  -5.6923  -5.6921  -5.6888  -5.6873
    -5.6848  -5.6836  -5.6829  -5.6801  -5.6794  -5.6761  -5.6758  -5.6749
    -5.6734  -5.6723  -5.6709  -5.6682  -5.6660  -5.6645  -5.6605  -5.6587
    -5.6585  -5.6544  -5.6513  -5.6485  -5.6459  -5.6441  -5.6435  -5.6399
     0.2788   0.2791   0.4114   0.4154   0.4293   0.4296   0.4321   0.4348
     0.4415   0.4449   0.4458   0.4483   0.4498   0.4504   0.4520   0.4558
     0.5002   0.5088   0.5228   0.5294   0.5374   0.5388   0.5412   0.5440
     0.5448   0.5479   0.5490   0.5527   0.5566   0.5618   0.5953   0.5965
     0.6005   0.6023   0.6048   0.6066   0.6084   0.6106   0.6184   0.6210
     0.6232   0.6257   0.6663   0.6681   0.6707   0.6733   0.7147   0.7150
     0.7152   0.7161   0.7266   0.7306   0.7319   0.7334   0.7343   0.7348
     0.7361   0.7366   0.7376   0.7382   0.7392   0.7403   0.7414   0.7586
     0.7607   0.7621   0.7626   0.7641   0.7658   0.7665   0.7682   0.7692
     0.7693   0.7708   0.7712   0.7742   0.7753   0.7819   0.7824   0.7840
     0.7856   0.7879   0.7890   0.7902   0.7924   0.7997   0.8075   0.8119
     0.8129   0.8146   0.8164   0.8173   0.8189   0.8202   0.8223   0.8234
     0.8243   0.8250   0.8258   0.8276   0.8279   0.8296   0.8307   0.8326
     0.8334   0.8346   0.8362   0.8538   0.8548   0.8557   0.8565   0.8582
     0.8616   0.8638   0.8648   0.8659   0.8690   0.8694   0.8711   0.8725
     0.8758   0.8777   0.8806   0.8810   0.8825   0.8846   0.8906   0.9200
     0.9201   0.9228   0.9256   0.9322   0.9326   0.9346   0.9359   0.9373
     0.9404   0.9640   0.9645   0.9655   0.9657   1.0270   1.0273   1.0274
     4.9190   5.5461   5.8661   5.8669   5.8772   5.8806   5.9037   5.9164
     5.9227   5.9288   5.9354   5.9391   5.9486   5.9499   5.9520   5.9623
     5.9944   6.0036   6.1480   6.1577   6.2048   6.2094   6.2200   6.2254
     6.2358   6.2428   6.2431   6.2541   6.2568   6.2663   6.2710   6.2754
     6.4131   6.4173   6.4288   6.4333   6.4497   6.4525   6.5527   6.5665
     6.5959   6.6065   6.6118   6.6223   6.6343   6.6418   6.6874   6.7013
     6.7047   6.7134   6.7181   6.7233   6.7279   6.7297   6.7464   6.7530
     6.7682   6.7910   6.7988   6.8026   6.8094   6.8143   6.8174   6.8235
     6.8262   6.8346   6.8470   6.8739   6.8749   6.8821   6.9502   6.9707
     7.0383   7.0490   7.0566   7.0615   7.0674

     occupation numbers
     1.0000   1.0000   1.0000   1.0000   1.0000   1.0000   1.0000   1.0000
     1.0000   1.0000   1.0000   1.0000   1.0000   1.0000   1.0000   1.0000
     1.0000   1.0000   1.0000   1.0000   1.0000   1.0000   1.0000   1.0000
     1.0000   1.0000   1.0000   1.0000   1.0000   1.0000   1.0000   1.0000
     1.0000   1.0000   1.0000   1.0000   1.0000   1.0000   1.0000   1.0000
     1.0000   1.0000   1.0000   1.0000   1.0000   1.0000   1.0000   1.0000
     1.0000   1.0000   1.0000   1.0000   1.0000   1.0000   1.0000   1.0000
     1.0000   1.0000   1.0000   1.0000   1.0000   1.0000   1.0000   1.0000
     1.0000   1.0000   1.0000   1.0000   1.0000   1.0000   1.0000   1.0000
     1.0000   1.0000   1.0000   1.0000   1.0000   1.0000   1.0000   1.0000
     1.0000   1.0000   1.0000   1.0000   1.0000   1.0000   1.0000   1.0000
     1.0000   1.0000   1.0000   1.0000   1.0000   1.0000   1.0000   1.0000
     1.0000   1.0000   1.0000   1.0000   1.0000   1.0000   1.0000   1.0000
     1.0000   1.0000   1.0000   1.0000   1.0000   1.0000   1.0000   1.0000
     1.0000   1.0000   1.0000   1.0000   1.0000   1.0000   1.0000   1.0000
     1.0000   1.0000   1.0000   1.0000   1.0000   1.0000   1.0000   1.0000
     1.0000   1.0000   1.0000   1.0000   1.0000   1.0000   1.0000   1.0000
     1.0000   1.0000   1.0000   1.0000   1.0000   1.0000   1.0000   1.0000
     1.0000   1.0000   1.0000   1.0000   1.0000   1.0000   1.0000   1.0000
     1.0000   1.0000   1.0000   1.0000   1.0000   1.0000   1.0000   1.0000
     1.0000   1.0000   1.0000   1.0000   1.0000   1.0000   1.0000   1.0000
     1.0000   1.0000   1.0000   1.0000   1.0000   1.0000   1.0000   1.0000
     1.0000   1.0000   1.0000   1.0000   1.0000   1.0000   1.0000   1.0000
     1.0000   1.0000   1.0000   1.0000   1.0000   1.0000   1.0000   1.0000
     1.0000   1.0000   1.0000   1.0000   1.0000   1.0000   1.0000   1.0000
     1.0000   1.0000   1.0000   1.0000   1.0000   1.0000   1.0000   1.0000
     1.0000   1.0000   1.0000   1.0000   1.0000   1.0000   1.0000   1.0000
     1.0000   1.0000   1.0000   1.0000   1.0000   1.0000   1.0000   1.0000
     1.0000   1.0000   1.0000   1.0000   1.0000   1.0000   1.0000   1.0000
     1.0000   1.0000   1.0000   1.0000   1.0000   1.0000   1.0000   1.0000
     1.0017   1.0017   1.0110   1.0116   1.0136   1.0137   1.0141   1.0145
     1.0157   1.0163   1.0164   1.0169   1.0171   1.0173   1.0176   1.0183
     1.0286   1.0309   1.0350   1.0370   1.0395   1.0399   1.0407   1.0416
     1.0419   1.0429   1.0432   1.0444   1.0457   1.0475   1.0590   1.0595
     1.0608   1.0614   1.0623   1.0629   1.0635   1.0642   1.0668   1.0676
     1.0683   1.0691   1.0796   1.0799   1.0804   1.0808   1.0828   1.0828
     1.0827   1.0827   1.0812   1.0804   1.0802   1.0798   1.0796   1.0795
     1.0791   1.0790   1.0787   1.0786   1.0783   1.0780   1.0777   1.0710
     1.0700   1.0693   1.0690   1.0682   1.0673   1.0669   1.0659   1.0654
     1.0653   1.0644   1.0642   1.0624   1.0617   1.0571   1.0567   1.0556
     1.0543   1.0526   1.0517   1.0507   1.0489   1.0424   1.0348   1.0302
     1.0291   1.0272   1.0252   1.0241   1.0224   1.0208   1.0184   1.0170
     1.0159   1.0150   1.0141   1.0118   1.0113   1.0093   1.0078   1.0052
     1.0042   1.0026   1.0004   0.9742   0.9726   0.9711   0.9699   0.9671
     0.9615   0.9577   0.9558   0.9539   0.9486   0.9478   0.9447   0.9422
     0.9362   0.9326   0.9271   0.9263   0.9234   0.9194   0.9074   0.8432
     0.8431   0.8367   0.8301   0.8142   0.8133   0.8085   0.8052   0.8018
     0.7940   0.7332   0.7319   0.7293   0.7288   0.5607   0.5600   0.5597
     0.0000   0.0000   0.0000   0.0000   0.0000   0.0000   0.0000   0.0000
     0.0000   0.0000   0.0000   0.0000   0.0000   0.0000   0.0000   0.0000
     0.0000   0.0000   0.0000   0.0000   0.0000   0.0000   0.0000   0.0000
     0.0000   0.0000   0.0000   0.0000   0.0000   0.0000   0.0000   0.0000
     0.0000   0.0000   0.0000   0.0000   0.0000   0.0000   0.0000   0.0000
     0.0000   0.0000   0.0000   0.0000   0.0000   0.0000   0.0000   0.0000
     0.0000   0.0000   0.0000   0.0000   0.0000   0.0000   0.0000   0.0000
     0.0000   0.0000   0.0000   0.0000   0.0000   0.0000   0.0000   0.0000
     0.0000   0.0000   0.0000   0.0000   0.0000   0.0000   0.0000   0.0000
     0.0000   0.0000   0.0000   0.0000   0.0000

[...]

          k =-0.5000-0.3536 0.0000 (198538 PWs)   bands (ev):

[...]

          k = 0.2500 0.2946 0.2667 (198529 PWs)   bands (ev):

[...]

          k =-0.5000-0.0236 0.2667 (198483 PWs)   bands (ev):

   -19.0047 -19.0034 -18.9983 -18.9789 -18.9718 -18.9717 -18.9620 -18.9612
   -18.9592 -18.9585 -18.9581 -18.9494 -18.9481 -18.9475 -18.9439 -18.9415
   -18.9401 -18.9381 -18.9354 -18.9290 -18.9249 -18.9225 -18.9208 -18.9184
   -18.9164 -18.9134 -18.9117 -18.9112 -18.9093 -18.9068 -18.9063 -18.8974
   -18.8967 -18.8964 -18.8963 -18.8959 -18.8945 -18.8897 -18.8760 -18.8632
   -18.8611 -18.8599 -18.8561 -18.8483 -18.8410 -18.8400 -18.8286 -18.8200
    -9.1880  -9.1877  -9.1854  -9.1848  -9.1817  -9.1814  -9.1804  -9.1795
    -9.1782  -9.1770  -9.1754  -9.1748  -9.1743  -9.1730  -9.1723  -9.1716
    -9.1703  -9.1696  -9.1683  -9.1677  -9.1669  -9.1663  -9.1661  -9.1656
    -9.1647  -9.1639  -9.1629  -9.1619  -9.1612  -9.1597  -9.1588  -9.1566
    -9.1555  -9.1544  -9.1538  -9.1531  -9.1513  -9.1503  -9.1487  -9.1477
    -9.1470  -9.1460  -9.1454  -9.1430  -9.1406  -9.1380  -9.1351  -9.1326
    -5.8794  -5.8787  -5.8728  -5.8590  -5.8570  -5.8549  -5.8537  -5.8490
    -5.8454  -5.8384  -5.8357  -5.8349  -5.8329  -5.8315  -5.8289  -5.8273
    -5.8243  -5.8233  -5.8222  -5.8195  -5.8173  -5.8138  -5.8127  -5.8121
    -5.8107  -5.8081  -5.8062  -5.8051  -5.8032  -5.8022  -5.7994  -5.7970
    -5.7962  -5.7955  -5.7946  -5.7932  -5.7918  -5.7909  -5.7895  -5.7871
    -5.7864  -5.7850  -5.7828  -5.7815  -5.7811  -5.7796  -5.7772  -5.7766
    -5.7753  -5.7741  -5.7730  -5.7712  -5.7702  -5.7697  -5.7688  -5.7668
    -5.7662  -5.7652  -5.7638  -5.7635  -5.7618  -5.7611  -5.7595  -5.7570
    -5.7561  -5.7545  -5.7529  -5.7521  -5.7515  -5.7500  -5.7488  -5.7475
    -5.7463  -5.7446  -5.7436  -5.7430  -5.7419  -5.7406  -5.7390  -5.7385
    -5.7375  -5.7365  -5.7351  -5.7341  -5.7334  -5.7317  -5.7309  -5.7303
    -5.7297  -5.7278  -5.7272  -5.7261  -5.7251  -5.7229  -5.7219  -5.7211
    -5.7192  -5.7184  -5.7174  -5.7164  -5.7145  -5.7132  -5.7117  -5.7104
    -5.7095  -5.7081  -5.7058  -5.7047  -5.7029  -5.7022  -5.7015  -5.7008
    -5.6970  -5.6965  -5.6955  -5.6942  -5.6915  -5.6903  -5.6880  -5.6860
    -5.6845  -5.6834  -5.6827  -5.6797  -5.6782  -5.6762  -5.6758  -5.6739
    -5.6726  -5.6707  -5.6695  -5.6681  -5.6661  -5.6631  -5.6606  -5.6592
    -5.6581  -5.6547  -5.6527  -5.6481  -5.6469  -5.6454  -5.6440  -5.6403
     0.3421   0.3430   0.3613   0.3633   0.4021   0.4041   0.4252   0.4333
     0.4362   0.4412   0.4445   0.4563   0.4663   0.4689   0.4715   0.4740
     0.4784   0.4900   0.4933   0.4955   0.5049   0.5053   0.5085   0.5116
     0.5273   0.5322   0.5466   0.5543   0.5598   0.5639   0.5833   0.5858
     0.5967   0.6010   0.6079   0.6105   0.6176   0.6210   0.6227   0.6353
     0.6412   0.6436   0.7206   0.7231   0.7251   0.7258   0.7306   0.7328
     0.7376   0.7393   0.7405   0.7418   0.7438   0.7450   0.7463   0.7476
     0.7483   0.7486   0.7497   0.7506   0.7523   0.7526   0.7538   0.7546
     0.7554   0.7569   0.7577   0.7589   0.7600   0.7618   0.7627   0.7645
     0.7665   0.7679   0.7693   0.7709   0.7727   0.7745   0.7768   0.7784
     0.7794   0.7811   0.7822   0.7842   0.7868   0.7905   0.7928   0.7943
     0.7968   0.7990   0.8010   0.8020   0.8066   0.8096   0.8151   0.8170
     0.8204   0.8223   0.8237   0.8253   0.8268   0.8291   0.8330   0.8397
     0.8424   0.8446   0.8463   0.8474   0.8504   0.8558   0.8590   0.8616
     0.8643   0.8663   0.8686   0.8690   0.8738   0.8755   0.8768   0.8854
     0.8891   0.8919   0.9002   0.9028   0.9065   0.9072   0.9084   0.9101
     0.9123   0.9149   0.9162   0.9183   0.9211   0.9234   0.9274   0.9313
     0.9328   0.9364   0.9395   0.9515   0.9787   0.9815   1.0022   1.0119
     5.1663   5.4957   5.5343   5.6738   5.7524   5.7978   5.8053   5.8356
     5.8592   5.8735   5.8841   5.9010   5.9504   5.9637   6.1102   6.1371
     6.1634   6.1942   6.1962   6.2289   6.2341   6.2661   6.2815   6.2928
     6.3047   6.3210   6.3467   6.3672   6.3797   6.3860   6.3987   6.4097
     6.4155   6.4172   6.4323   6.4465   6.4870   6.4970   6.5044   6.5252
     6.5502   6.5549   6.5616   6.5676   6.5737   6.5928   6.5938   6.6057
     6.6230   6.6454   6.6889   6.7096   6.7214   6.7310   6.7401   6.7423
     6.7466   6.7547   6.7601   6.7697   6.7744   6.7870   6.7919   6.7961
     6.8100   6.8276   6.8304   6.8385   6.8491   6.8724   6.8946   6.9116
     6.9170   6.9303   6.9486   6.9525   6.9762

     occupation numbers
     1.0000   1.0000   1.0000   1.0000   1.0000   1.0000   1.0000   1.0000
     1.0000   1.0000   1.0000   1.0000   1.0000   1.0000   1.0000   1.0000
     1.0000   1.0000   1.0000   1.0000   1.0000   1.0000   1.0000   1.0000
     1.0000   1.0000   1.0000   1.0000   1.0000   1.0000   1.0000   1.0000
     1.0000   1.0000   1.0000   1.0000   1.0000   1.0000   1.0000   1.0000
     1.0000   1.0000   1.0000   1.0000   1.0000   1.0000   1.0000   1.0000
     1.0000   1.0000   1.0000   1.0000   1.0000   1.0000   1.0000   1.0000
     1.0000   1.0000   1.0000   1.0000   1.0000   1.0000   1.0000   1.0000
     1.0000   1.0000   1.0000   1.0000   1.0000   1.0000   1.0000   1.0000
     1.0000   1.0000   1.0000   1.0000   1.0000   1.0000   1.0000   1.0000
     1.0000   1.0000   1.0000   1.0000   1.0000   1.0000   1.0000   1.0000
     1.0000   1.0000   1.0000   1.0000   1.0000   1.0000   1.0000   1.0000
     1.0000   1.0000   1.0000   1.0000   1.0000   1.0000   1.0000   1.0000
     1.0000   1.0000   1.0000   1.0000   1.0000   1.0000   1.0000   1.0000
     1.0000   1.0000   1.0000   1.0000   1.0000   1.0000   1.0000   1.0000
     1.0000   1.0000   1.0000   1.0000   1.0000   1.0000   1.0000   1.0000
     1.0000   1.0000   1.0000   1.0000   1.0000   1.0000   1.0000   1.0000
     1.0000   1.0000   1.0000   1.0000   1.0000   1.0000   1.0000   1.0000
     1.0000   1.0000   1.0000   1.0000   1.0000   1.0000   1.0000   1.0000
     1.0000   1.0000   1.0000   1.0000   1.0000   1.0000   1.0000   1.0000
     1.0000   1.0000   1.0000   1.0000   1.0000   1.0000   1.0000   1.0000
     1.0000   1.0000   1.0000   1.0000   1.0000   1.0000   1.0000   1.0000
     1.0000   1.0000   1.0000   1.0000   1.0000   1.0000   1.0000   1.0000
     1.0000   1.0000   1.0000   1.0000   1.0000   1.0000   1.0000   1.0000
     1.0000   1.0000   1.0000   1.0000   1.0000   1.0000   1.0000   1.0000
     1.0000   1.0000   1.0000   1.0000   1.0000   1.0000   1.0000   1.0000
     1.0000   1.0000   1.0000   1.0000   1.0000   1.0000   1.0000   1.0000
     1.0000   1.0000   1.0000   1.0000   1.0000   1.0000   1.0000   1.0000
     1.0000   1.0000   1.0000   1.0000   1.0000   1.0000   1.0000   1.0000
     1.0000   1.0000   1.0000   1.0000   1.0000   1.0000   1.0000   1.0000
     1.0044   1.0045   1.0058   1.0059   1.0098   1.0101   1.0130   1.0143
     1.0147   1.0156   1.0162   1.0184   1.0205   1.0210   1.0216   1.0221
     1.0232   1.0260   1.0268   1.0274   1.0299   1.0300   1.0308   1.0317
     1.0364   1.0378   1.0424   1.0450   1.0468   1.0482   1.0549   1.0558
     1.0595   1.0610   1.0633   1.0642   1.0665   1.0676   1.0681   1.0720
     1.0737   1.0743   1.0822   1.0818   1.0815   1.0814   1.0804   1.0800
     1.0787   1.0783   1.0779   1.0775   1.0769   1.0765   1.0760   1.0756
     1.0753   1.0752   1.0748   1.0744   1.0737   1.0736   1.0731   1.0728
     1.0724   1.0718   1.0714   1.0708   1.0703   1.0694   1.0690   1.0680
     1.0669   1.0661   1.0653   1.0644   1.0633   1.0621   1.0607   1.0596
     1.0589   1.0577   1.0569   1.0554   1.0534   1.0505   1.0486   1.0473
     1.0451   1.0431   1.0412   1.0403   1.0358   1.0326   1.0266   1.0245
     1.0207   1.0183   1.0167   1.0147   1.0128   1.0098   1.0047   0.9956
     0.9916   0.9884   0.9858   0.9841   0.9796   0.9711   0.9658   0.9614
     0.9567   0.9533   0.9493   0.9485   0.9399   0.9367   0.9343   0.9177
     0.9105   0.9047   0.8875   0.8819   0.8738   0.8723   0.8696   0.8658
     0.8609   0.8550   0.8519   0.8472   0.8406   0.8352   0.8258   0.8163
     0.8128   0.8040   0.7964   0.7659   0.6938   0.6864   0.6294   0.6027
     0.0000   0.0000   0.0000   0.0000   0.0000   0.0000   0.0000   0.0000
     0.0000   0.0000   0.0000   0.0000   0.0000   0.0000   0.0000   0.0000
     0.0000   0.0000   0.0000   0.0000   0.0000   0.0000   0.0000   0.0000
     0.0000   0.0000   0.0000   0.0000   0.0000   0.0000   0.0000   0.0000
     0.0000   0.0000   0.0000   0.0000   0.0000   0.0000   0.0000   0.0000
     0.0000   0.0000   0.0000   0.0000   0.0000   0.0000   0.0000   0.0000
     0.0000   0.0000   0.0000   0.0000   0.0000   0.0000   0.0000   0.0000
     0.0000   0.0000   0.0000   0.0000   0.0000   0.0000   0.0000   0.0000
     0.0000   0.0000   0.0000   0.0000   0.0000   0.0000   0.0000   0.0000
     0.0000   0.0000   0.0000   0.0000   0.0000

     the Fermi energy is     1.0871 ev

!    total energy              =   -6189.17249189 Ry
     Harris-Foulkes estimate   =   -6189.17249231 Ry
     estimated scf accuracy    <       0.00000052 Ry

     The total energy is the sum of the following terms:

     one-electron contribution =    -566.92805762 Ry
     hartree contribution      =     531.24845603 Ry
     xc contribution           =   -3777.58904341 Ry
     ewald contribution        =   -2376.37731196 Ry
     smearing contrib. (-TS)   =       0.47346507 Ry

     convergence has been achieved in  79 iterations

     Writing output data file aiida.save

     General routines

     Parallel routines

   This run was terminated on:  20: 4: 6   1Jun2017

   JOB DONE.