     Program PWSCF v.6.5 starts on 10Mar2020 at 15:17:55

     R & G space division:  proc/nbgrp/npool/nimage =      25
     Reading input from pw.in
     Message from routine read_cards :
     DEPRECATED: no units specified in CELL_PARAMETERS card
Warning: card 1 1 1  0 0 0 ignored

     Current dimensions of program PWSCF are:
     Max number of different atomic species (ntypx) = 10
     Max number of k-points (npk) =  40000
     Max angular momentum in pseudopotentials (lmaxx) =  3
     Message from routine cell_base_init:
     DEPRECATED: use true lattice parameter, not A to a.u. conversion factor

     gamma-point specific algorithms are used

     Message from routine setup:
     using ibrav=0 with symmetry is DISCOURAGED, use correct ibrav instead

     bravais-lattice index     =            0
     lattice parameter (alat)  =       1.0000  a.u.
     unit-cell volume          =   69174.1805 (a.u.)^3
     number of atoms/cell      =          512
     number of atomic types    =            2
     number of electrons       =      2058.00
     number of Kohn-Sham states=         1235
     kinetic-energy cutoff     =      40.0000  Ry
     charge density cutoff     =     600.0000  Ry
     convergence threshold     =      1.0E-10
     mixing beta               =       0.7000
     number of iterations used =            8  plain     mixing
     Exchange-correlation= SLA  PZ   NOGX NOGC
                           (   1   1   0   0   0   0   0)

     celldm(1)=   1.000000  celldm(2)=   0.000000  celldm(3)=   0.000000
     celldm(4)=   0.000000  celldm(5)=   0.000000  celldm(6)=   0.000000

     crystal axes: (cart. coord. in units of alat)
               a(1) = (  41.050143   0.000000   0.000000 )
               a(2) = (   0.000000  41.050143   0.000000 )
               a(3) = (   0.000000   0.000000  41.050143 )

     reciprocal axes: (cart. coord. in units 2 pi/alat)
               b(1) = (  0.024360  0.000000  0.000000 )
               b(2) = (  0.000000  0.024360  0.000000 )
               b(3) = (  0.000000  0.000000  0.024360 )

     PseudoPot. # 1 for Ge read from file:
     ./ge_lda_v1.uspp.F.UPF
     MD5 check sum: 575f587c0f86b3eee266efe92ef02c15
     Pseudo is Ultrasoft + core correction, Zval = 14.0
     Generated by new atomic code, or converted to UPF format
     Using radial grid of  873 points,  6 beta functions with:
                l(1) =   0
                l(2) =   0
                l(3) =   1
                l(4) =   1
                l(5) =   2
                l(6) =   2
     Q(r) pseudized with  8 coefficients,  rinner =    1.400   1.400   1.400
                                                       1.400   1.400

     PseudoPot. # 2 for Si read from file:
     ./si_lda_v1.uspp.F.UPF
     MD5 check sum: ca10e49b2835512e91ee5100d37237e0
     Pseudo is Ultrasoft + core correction, Zval =  4.0
     Generated by new atomic code, or converted to UPF format
     Using radial grid of  899 points,  6 beta functions with:
                l(1) =   0
                l(2) =   0
                l(3) =   1
                l(4) =   1
                l(5) =   2
                l(6) =   2
     Q(r) pseudized with  8 coefficients,  rinner =    0.900   0.900   0.900
                                                       0.900   0.900

     atomic species   valence    mass     pseudopotential
        Ge            14.00    72.61000     Ge( 1.00)
        Si             4.00    28.08550     Si( 1.00)

     24 Sym. Ops. (no inversion) found

   Cartesian axes

     site n.     atom                  positions (alat units)
         1           Ge  tau(   1) = (   0.0000000   0.0000000   0.0000000  )
         2           Si  tau(   2) = (  20.5250715  20.5250715  20.5250715  )
         3           Si  tau(   3) = (  20.5250715  20.5250715  30.7876073  )
         4           Si  tau(   4) = (  20.5250715  20.5250715   0.0000000  )
         5           Si  tau(   5) = (  20.5250715  20.5250715  10.2625357  )
         6           Si  tau(   6) = (  20.5250715  30.7876073  20.5250715  )
         7           Si  tau(   7) = (  20.5250715  30.7876073  30.7876073  )
         8           Si  tau(   8) = (  20.5250715  30.7876073   0.0000000  )
         9           Si  tau(   9) = (  20.5250715  30.7876073  10.2625357  )
        10           Si  tau(  10) = (  20.5250715   0.0000000  20.5250715  )
        11           Si  tau(  11) = (  20.5250715   0.0000000  30.7876073  )
        12           Si  tau(  12) = (  20.5250715   0.0000000   0.0000000  )
        13           Si  tau(  13) = (  20.5250715   0.0000000  10.2625357  )
        14           Si  tau(  14) = (  20.5250715  10.2625357  20.5250715  )
        15           Si  tau(  15) = (  20.5250715  10.2625357  30.7876073  )
        16           Si  tau(  16) = (  20.5250715  10.2625357   0.0000000  )
        17           Si  tau(  17) = (  20.5250715  10.2625357  10.2625357  )
        18           Si  tau(  18) = (  30.7876073  20.5250715  20.5250715  )
        19           Si  tau(  19) = (  30.7876073  20.5250715  30.7876073  )
        20           Si  tau(  20) = (  30.7876073  20.5250715   0.0000000  )
        21           Si  tau(  21) = (  30.7876073  20.5250715  10.2625357  )
        22           Si  tau(  22) = (  30.7876073  30.7876073  20.5250715  )
        23           Si  tau(  23) = (  30.7876073  30.7876073  30.7876073  )
        24           Si  tau(  24) = (  30.7876073  30.7876073   0.0000000  )
        25           Si  tau(  25) = (  30.7876073  30.7876073  10.2625357  )
        26           Si  tau(  26) = (  30.7876073   0.0000000  20.5250715  )
        27           Si  tau(  27) = (  30.7876073   0.0000000  30.7876073  )
        28           Si  tau(  28) = (  30.7876073   0.0000000   0.0000000  )
        29           Si  tau(  29) = (  30.7876073   0.0000000  10.2625357  )
        30           Si  tau(  30) = (  30.7876073  10.2625357  20.5250715  )
        31           Si  tau(  31) = (  30.7876073  10.2625357  30.7876073  )
        32           Si  tau(  32) = (  30.7876073  10.2625357   0.0000000  )
        33           Si  tau(  33) = (  30.7876073  10.2625357  10.2625357  )
        34           Si  tau(  34) = (   0.0000000  20.5250715  20.5250715  )
        35           Si  tau(  35) = (   0.0000000  20.5250715  30.7876073  )
        36           Si  tau(  36) = (   0.0000000  20.5250715   0.0000000  )
        37           Si  tau(  37) = (   0.0000000  20.5250715  10.2625357  )
        38           Si  tau(  38) = (   0.0000000  30.7876073  20.5250715  )
        39           Si  tau(  39) = (   0.0000000  30.7876073  30.7876073  )
        40           Si  tau(  40) = (   0.0000000  30.7876073   0.0000000  )
        41           Si  tau(  41) = (   0.0000000  30.7876073  10.2625357  )
        42           Si  tau(  42) = (   0.0000000   0.0000000  20.5250715  )
        43           Si  tau(  43) = (   0.0000000   0.0000000  30.7876073  )
        44           Si  tau(  44) = (   0.0000000   0.0000000  10.2625357  )
        45           Si  tau(  45) = (   0.0000000  10.2625357  20.5250715  )
        46           Si  tau(  46) = (   0.0000000  10.2625357  30.7876073  )
        47           Si  tau(  47) = (   0.0000000  10.2625357   0.0000000  )
        48           Si  tau(  48) = (   0.0000000  10.2625357  10.2625357  )
        49           Si  tau(  49) = (  10.2625357  20.5250715  20.5250715  )
        50           Si  tau(  50) = (  10.2625357  20.5250715  30.7876073  )
        51           Si  tau(  51) = (  10.2625357  20.5250715   0.0000000  )
        52           Si  tau(  52) = (  10.2625357  20.5250715  10.2625357  )
        53           Si  tau(  53) = (  10.2625357  30.7876073  20.5250715  )
        54           Si  tau(  54) = (  10.2625357  30.7876073  30.7876073  )
        55           Si  tau(  55) = (  10.2625357  30.7876073   0.0000000  )
        56           Si  tau(  56) = (  10.2625357  30.7876073  10.2625357  )
        57           Si  tau(  57) = (  10.2625357   0.0000000  20.5250715  )
        58           Si  tau(  58) = (  10.2625357   0.0000000  30.7876073  )
        59           Si  tau(  59) = (  10.2625357   0.0000000   0.0000000  )
        60           Si  tau(  60) = (  10.2625357   0.0000000  10.2625357  )
[...]
       498           Si  tau( 498) = (  12.8281697  23.0907054  33.3532412  )
       499           Si  tau( 499) = (  12.8281697  23.0907054   2.5656339  )
       500           Si  tau( 500) = (  12.8281697  23.0907054  12.8281697  )
       501           Si  tau( 501) = (  12.8281697  33.3532412  23.0907054  )
       502           Si  tau( 502) = (  12.8281697  33.3532412  33.3532412  )
       503           Si  tau( 503) = (  12.8281697  33.3532412   2.5656339  )
       504           Si  tau( 504) = (  12.8281697  33.3532412  12.8281697  )
       505           Si  tau( 505) = (  12.8281697   2.5656339  23.0907054  )
       506           Si  tau( 506) = (  12.8281697   2.5656339  33.3532412  )
       507           Si  tau( 507) = (  12.8281697   2.5656339   2.5656339  )
       508           Si  tau( 508) = (  12.8281697   2.5656339  12.8281697  )
       509           Si  tau( 509) = (  12.8281697  12.8281697  23.0907054  )
       510           Si  tau( 510) = (  12.8281697  12.8281697  33.3532412  )
       511           Si  tau( 511) = (  12.8281697  12.8281697   2.5656339  )
       512           Si  tau( 512) = (  12.8281697  12.8281697  12.8281697  )

     number of k points=     1  Gaussian smearing, width (Ry)=  0.0010
                       cart. coord. in units 2pi/alat
        k(    1) = (   0.0000000   0.0000000   0.0000000), wk =   2.0000000

     Initial potential from superposition of free atoms

     Self-consistent Calculation

     iteration #  1     ecut=    40.00 Ry     beta= 0.70

     Threshold (ethr) on eigenvalues was too large:
     Diagonalizing with lowered threshold

     total energy              =   -5126.82650298 Ry
     estimated scf accuracy    <      14.53670454 Ry

     Band energy sum           =      64.99726352 Ry

[...]

     total energy              =   -5128.14960992 Ry
     estimated scf accuracy    <          2.5E-10 Ry

[...]

     iteration # 20     ecut=    40.00 Ry     beta= 0.70

     End of self-consistent calculation

          k = 0.0000 0.0000 0.0000 (147954 PWs)   bands (ev):

   -18.3118 -18.3118 -18.3118 -18.2816 -18.2816  -5.9524  -5.7031  -5.6750
    -5.6750  -5.6750  -5.6749  -5.6749  -5.4554  -5.4078  -5.4078  -5.4078
    -5.4075  -5.4075  -5.4075  -5.4075  -5.4075  -5.4075  -5.4075  -5.4075
    -5.1772  -5.1482  -5.1482  -5.1482  -5.1480  -5.1479  -5.1479  -5.1479
    -4.8936  -4.8663  -4.8663  -4.8663  -4.8661  -4.8661  -4.7049  -4.6194
    -4.6194  -4.6194  -4.6184  -4.6184  -4.6184  -4.6184  -4.6184  -4.6184
    -4.6184  -4.6184  -4.6183  -4.6183  -4.6183  -4.6183  -4.6183  -4.6183
    -4.6183  -4.6183  -4.6183  -4.6182  -4.6182  -4.6182  -4.4473  -4.3916
    -4.3916  -4.3916  -4.3906  -4.3906  -4.3906  -4.3906  -4.3906  -4.3906
    -4.3906  -4.3906  -4.3906  -4.3905  -4.3905  -4.3905  -4.3905  -4.3905
    -4.3905  -4.3905  -4.3905  -4.3905  -4.3905  -4.3905  -3.9577  -3.9036
[...]
 | | | | | |- sddk::matrix_storage::set_num_extra                          1      93.00 ms       0.07      16.49      93.00 ms      93.00 ms      93.00 ms
 | | | | | | |- sddk::matrix_storage::set_num_extra|alloc                  1      93.00 ms       0.07     100.00      93.00 ms      93.00 ms      93.00 ms
 | | | | | |- sddk::matrix_storage::remap_backward                         1      78.82 ms       0.06      13.98      78.82 ms      78.82 ms      78.82 ms
 | | | | |- sirius::Beta_projectors_base::generate                         2       3.36 ms       0.00       0.27       1.68 ms       1.32 ms       2.04 ms
 | | | | |- sirius::Beta_projectors_base::inner                            2     454.16 ms       0.34      36.81     227.08 ms     214.94 ms     239.21 ms
 | | | | | |- sirius::Beta_projectors_base::inner|comm                     2     250.77 ms       0.19      55.22     125.39 ms     122.09 ms     128.68 ms
 | | | | |- sirius::Non_local_operator::apply                              4     212.33 ms       0.16      17.21      53.16 ms      52.69 ms      53.31 ms
 | | | |- sirius::Band::set_subspace_mtrx                                  2     217.48 ms       0.16      10.36     108.74 ms     102.61 ms     114.87 ms
 | | | | |- sddk::inner                                                    2     217.05 ms       0.16      99.81     108.53 ms     102.39 ms     114.66 ms
 | | | | | |- sddk::inner|local                                            2      52.43 us       0.00       0.02      26.22 us      15.05 us      37.38 us
 | | | | | |- sddk::inner|device_copy                                      4      75.38 ms       0.06      34.73      18.84 ms       2.78 ms      34.93 ms
 | | | | | |- sddk::inner|store                                            4      10.00 ms       0.01       4.61       2.50 ms       1.92 ms       3.07 ms
 | | | |- Eigensolver_cuda|dsygvd                                          1     258.39 ms       0.19      12.31     258.39 ms     258.39 ms     258.39 ms
 | | | |- sddk::transform                                                  1      16.07 ms       0.01       0.77      16.07 ms      16.07 ms      16.07 ms
 | | | | |- sddk::transform|init                                           1      17.47 us       0.00       0.11      17.47 us      17.47 us      17.47 us
 | | | | |- sddk::transform|local                                          1      18.88 us       0.00       0.12      18.88 us      18.88 us      18.88 us
 | | |- sirius::Beta_projectors_base::dismiss                              1     565.00 ns       0.00       0.00     565.00 ns     565.00 ns     565.00 ns
 |
 |- qe|electrons                                                           1      117.45 s      86.86      86.86      117.45 s      117.45 s      117.45 s
 | |- sirius::Hamiltonian0                                                21     620.54 ms       0.46       0.53      27.58 ms      26.98 ms      39.84 ms
 | | |- sirius::Local_operator                                            21     590.38 ms       0.44      95.14      26.19 ms      25.60 ms      38.46 ms
 | | | |- sirius::Smooth_periodic_function                                21     107.86 ms       0.08      18.27       4.82 ms       4.66 ms      10.86 ms
 | | | |- sirius::Smooth_periodic_function::fft_transform                 21     345.01 ms       0.26      58.44      14.87 ms      14.25 ms      27.11 ms
 | | |- sirius::Non_local_operator                                        42       3.23 ms       0.00       0.52      78.32 us      66.76 us      83.49 us
 | | |- sirius::D_operator::initialize                                    21      13.98 ms       0.01       2.25     624.33 us     611.31 us       1.50 ms
 | | |- sirius::Q_operator::initialize                                    21       8.67 ms       0.01       1.40     410.11 us     404.85 us     435.82 us
 | |
 | |- sirius::Band::solve                                                 21       82.17 s      60.77      69.96        3.02 s     869.18 ms       15.20 s
 | | |- sirius::Hamiltonian_k                                             21       8.46 ms       0.01       0.01     404.25 us     388.97 us     427.21 us
 | | | |- sirius::Local_operator::prepare_k                               21       8.31 ms       0.01      98.29     397.40 us     382.24 us     420.58 us
 | | | |- sirius::Beta_projectors_base::prepare                           21     100.65 us       0.00       1.19       4.76 us       4.17 us       5.65 us
 | | |- sirius::Band::diag_pseudo_potential_davidson                      21       82.16 s      60.76      99.99        3.02 s     868.74 ms       15.20 s
 | | | |- sirius::Band::diag_pseudo_potential_davidson|alloc              21        1.07 s       0.79       1.30      11.89 ms      11.86 ms     830.41 ms
 | | | | |- sddk::matrix_storage::matrix_storage                         126     604.55 ms       0.45      56.56     439.00 ns     265.00 ns     579.13 ms
 | | | |- sirius::Hamiltonian_k::get_h_o_diag                             21     238.55 ms       0.18       0.29      11.31 ms      11.27 ms      12.03 ms
 | | | |- sirius::Band::diag_pseudo_potential_davidson|iter               21       80.66 s      59.65      98.17        2.99 s     836.41 ms       15.17 s
 | | | | |- sirius::Hamiltonian_k::apply_h_s                             100       29.92 s      22.12      37.09     159.57 ms      22.03 ms     832.03 ms
 | | | | | |- sirius::Local_operator::apply_h                            100       10.67 s       7.89      35.68      57.70 ms       7.54 ms     421.15 ms
 | | | | | | |- sddk::matrix_storage::remap_forward                      100        2.13 s       1.57      19.95      12.15 ms       3.85 ms     174.36 ms
 | | | | | | | |- sddk::matrix_storage::set_num_extra                    100      56.57 ms       0.04       2.66       2.85 us       2.30 us      56.20 ms
 | | | | | | | | |- sddk::matrix_storage::set_num_extra|alloc             21      56.31 ms       0.04      99.53       5.46 us       4.60 us      56.20 ms
 | | | | | | |- sddk::matrix_storage::set_num_extra                      100      57.19 ms       0.04       0.54       3.97 us       1.20 us      56.76 ms
 | | | | | | | |- sddk::matrix_storage::set_num_extra|alloc               21      56.90 ms       0.04      99.50       7.47 us       6.71 us      56.75 ms
 | | | | | | |- sddk::matrix_storage::remap_backward                     100        2.20 s       1.63      20.59      11.85 ms     845.68 us      58.32 ms
 | | | | | |- sirius::Beta_projectors_base::generate                     200     282.46 ms       0.21       0.94       1.32 ms       1.29 ms       2.74 ms
 | | | | | |- sirius::Beta_projectors_base::inner                        200       12.45 s       9.20      41.60      32.26 ms       1.22 ms     187.39 ms
 | | | | | | |- sirius::Beta_projectors_base::inner|comm                 200        7.70 s       5.70      61.88      18.95 ms     319.53 us     136.78 ms
 | | | | | |- sirius::Non_local_operator::apply                          400        6.51 s       4.82      21.76       9.92 ms       2.10 ms      34.40 ms
 | | | | |- sddk::orthogonalize                                          100        5.06 s       3.74       6.27      40.74 ms       1.30 ms     231.15 ms
 | | | | | |- sddk::inner                                                179        2.99 s       2.21      59.08       8.16 ms     160.75 us     119.88 ms
 | | | | | | |- sddk::inner|local                                        179       3.53 ms       0.00       0.12      20.18 us       8.17 us      37.54 us
 | | | | | | |- sddk::inner|device_copy                                  358     922.17 ms       0.68      30.85     732.47 us       9.81 us      23.15 ms
 | | | | | | |- sddk::inner|store                                        358     101.13 ms       0.07       3.38     119.62 us       1.86 us       1.48 ms
 | | | | | |- sddk::orthogonalize|tmtrx                                  100     239.07 ms       0.18       4.73     606.65 us      22.89 us      10.57 ms
 | | | | | |- sddk::orthogonalize|transform                              100     728.59 ms       0.54      14.40       1.92 ms      36.95 us      18.23 ms
 | | | | | |- sddk::transform                                             79        1.10 s       0.81      21.78       9.59 ms     662.13 us      51.10 ms
 | | | | | | |- sddk::transform|init                                      79       1.18 ms       0.00       0.11      13.87 us      12.55 us      25.62 us
 | | | | | | |- sddk::transform|local                                    237       2.15 ms       0.00       0.19       6.03 us       3.58 us      31.58 us
 | | | | |- sirius::Band::set_subspace_mtrx                              100        3.69 s       2.73       4.58      29.64 ms       1.57 ms     123.33 ms
 | | | | | |- sddk::inner                                                100        2.96 s       2.19      80.06      21.15 ms     472.44 us     118.29 ms
 | | | | | | |- sddk::inner|local                                        100       4.20 ms       0.00       0.14      33.73 us      17.92 us      74.96 us
 | | | | | | |- sddk::inner|device_copy                                  200     963.29 ms       0.71      32.58       1.32 ms      13.70 us      35.19 ms
 | | | | | | |- sddk::inner|store                                        200     106.73 ms       0.08       3.61     379.96 us       7.79 us       3.28 ms
 | | | | |- sirius::Band::diag_pseudo_potential_davidson|evp             100       40.33 s      29.83      50.00     306.18 ms     103.33 ms        1.09 s
 | | | | | |- Eigensolver_cuda|dsyevd                                    100       40.33 s      29.83     100.00     306.18 ms     103.32 ms        1.09 s
 | | | | |- sirius::residuals                                            100        1.22 s       0.90       1.51       9.89 ms      10.51 us      51.49 ms
 | | | | | |- sddk::transform                                             83     838.54 ms       0.62      68.73       6.98 ms     884.22 us      34.65 ms
 | | | | | | |- sddk::transform|init                                      83       1.21 ms       0.00       0.14      14.20 us      12.39 us      20.11 us
 | | | | | | |- sddk::transform|local                                    166       2.81 ms       0.00       0.34      15.34 us       4.83 us      55.84 us
 | | | | | |- sirius::normalized_preconditioned_residuals                 83     278.22 ms       0.21      22.80       2.77 ms     337.39 us      27.74 ms
 | | | | |- sirius::Band::diag_pseudo_potential_davidson|update_phi       21     432.17 ms       0.32       0.54      21.40 ms       9.90 ms      37.22 ms
 | | | | | |- sddk::transform                                             21     432.01 ms       0.32      99.96      21.39 ms       9.89 ms      37.21 ms
 | | | | | | |- sddk::transform|init                                      21     228.48 us       0.00       0.05      12.04 us       5.65 us      12.79 us
 | | | | | | |- sddk::transform|local                                     21     361.90 us       0.00       0.08      18.28 us       9.62 us      18.95 us
 | | |- sirius::Beta_projectors_base::dismiss                             21      12.56 us       0.00       0.00     600.00 ns     502.00 ns     788.00 ns
 | | |- sirius::K_point_set::sync_band_energies                           21     345.72 us       0.00       0.00      16.06 us      15.31 us      21.52 us
 | |
 | |- qe|sum_band                                                         21       16.27 s      12.03      13.85     763.35 ms     739.41 ms     838.36 ms
 | | |- sirius::Density::generate                                         21       13.38 s       9.89      82.21     625.80 ms     603.17 ms     696.69 ms
 | | | |- sirius::Density::generate_valence                               21       13.38 s       9.89     100.00     625.80 ms     603.17 ms     696.68 ms
 | | | | |- sddk::matrix_storage::remap_forward                           21     675.92 ms       0.50       5.05      31.37 ms      29.10 ms      41.96 ms
 | | | | | |- sddk::matrix_storage::set_num_extra                         21     138.59 us       0.00       0.02       6.57 us       5.62 us      10.20 us
 | | | | | | |- sddk::matrix_storage::set_num_extra|alloc                  1       6.14 us       0.00       4.43       6.14 us       6.14 us       6.14 us
 | | | | |- sirius::Density::add_k_point_contribution_dm                  21        4.67 s       3.45      34.90     218.21 ms     203.18 ms     252.19 ms
 | | | | | |- sirius::Beta_projectors_base::prepare                       21     228.06 us       0.00       0.00      10.74 us       9.90 us      12.46 us
 | | | | | |- sirius::Beta_projectors_base::generate                      42      55.71 ms       0.04       1.19       1.32 ms       1.30 ms       1.36 ms
 | | | | | |- sirius::Beta_projectors_base::inner                         42        4.59 s       3.40      98.37     107.54 ms      95.50 ms     139.30 ms
 | | | | | | |- sirius::Beta_projectors_base::inner|comm                  42        2.76 s       2.04      60.04      64.15 ms      52.43 ms      96.01 ms
 | | | | | |- sirius::Beta_projectors_base::dismiss                       21      10.15 us       0.00       0.00     457.00 ns     394.00 ns     713.00 ns
 | | | | |- sirius::Density::add_k_point_contribution_rg                  21        1.43 s       1.05      10.66      67.18 ms      66.90 ms      81.96 ms
 | | | | |- sirius::Smooth_periodic_function::fft_transform               21     185.24 ms       0.14       1.38       8.82 ms       8.80 ms       8.85 ms
 | | | | |- sirius::Density::augment                                      21        4.29 s       3.17      32.05     201.69 ms     201.64 ms     254.34 ms
 | | | | | |- sirius::Density::generate_rho_aug                           21        4.28 s       3.17      99.87     201.42 ms     201.37 ms     254.07 ms
 | | |- sirius_api::sirius_get_pw_coeffs                                  21        2.35 s       1.74      14.45     111.55 ms     110.39 ms     117.23 ms
 | | | |- sirius::Smooth_periodic_function::gather_f_pw                   21        1.89 s       1.40      80.38      89.56 ms      88.57 ms      95.41 ms
 | | |- qe|sym_rho                                                        21      32.95 us       0.00       0.00       1.33 us       1.18 us       4.64 us
 | |
 | |- qe|mix                                                              21     928.09 ms       0.69       0.79      49.45 ms     555.03 us      53.65 ms
 | |- sirius_api::sirius_set_pw_coeffs                                    20       11.23 s       8.31       9.56     549.91 ms     511.60 ms     702.17 ms
 | | |- sirius::Smooth_periodic_function::fft_transform                   20     123.03 ms       0.09       1.10       6.04 ms       5.76 ms       7.62 ms
 | |
 | |- qe|newd                                                             20        4.12 s       3.05       3.51     206.16 ms     205.66 ms     207.53 ms
 | | |- sirius::Potential::generate_D_operator_matrix                     20        4.09 s       3.03      99.25     204.63 ms     204.13 ms     205.99 ms
 |
 |- sirius_api::sirius_get_wave_functions                                  1        2.24 s       1.66       1.66        2.24 s        2.24 s        2.24 s
 | |- sddk::matrix_storage::matrix_storage                                 1      17.06 us       0.00       0.00      17.06 us      17.06 us      17.06 us
 |
 |- qe|ions                                                                1     460.89 ms       0.34       0.34     460.89 ms     460.89 ms     460.89 ms
 | |- sirius_api::sirius_set_pw_coeffs                                     1     459.76 ms       0.34      99.75     459.76 ms     459.76 ms     459.76 ms
 | | |- sirius::Smooth_periodic_function::fft_transform                    1       6.97 ms       0.01       1.52       6.97 ms       6.97 ms       6.97 ms
 |
 |- qe|punch                                                               1     892.00 ns       0.00       0.00     892.00 ns     892.00 ns     892.00 ns
 |- sirius::finalize                                                       1     110.06 ms       0.08       0.08     110.06 ms     110.06 ms     110.06 ms

Batch Job Summary Report for Job "test_scf" (20934931) on daint
2020-03-10T15:12:35 2020-03-10T15:12:35 2020-03-10T15:17:17 2020-03-10T15:20:14   00:02:57   00:20:00
Username    Account     Partition   NNodes   Energy
antonk      csstaff     normal          25  728.57K joules
gpusecs  maxgpusecs        maxmem            summem
   1886        1886    5232394240      141622771712
Scratch File System        Files       Quota
/scratch/snx3000            2651     1000000