     Program PWSCF v.6.5 starts on 10Mar2020 at 15:33: 0

     R & G space division:  proc/nbgrp/npool/nimage =      36
     Reading input from pw.in
     Message from routine read_cards :
     DEPRECATED: no units specified in CELL_PARAMETERS card
Warning: card 1 1 1  0 0 0 ignored

     Current dimensions of program PWSCF are:
     Max number of different atomic species (ntypx) = 10
     Max number of k-points (npk) =  40000
     Max angular momentum in pseudopotentials (lmaxx) =  3
     Message from routine cell_base_init:
     DEPRECATED: use true lattice parameter, not A to a.u. conversion factor

     gamma-point specific algorithms are used

     Message from routine setup:
     using ibrav=0 with symmetry is DISCOURAGED, use correct ibrav instead

     bravais-lattice index     =            0
     lattice parameter (alat)  =       1.0000  a.u.
     unit-cell volume          =   69174.1805 (a.u.)^3
     number of atoms/cell      =          512
     number of atomic types    =            2
     number of electrons       =      2058.00
     number of Kohn-Sham states=         1235
     kinetic-energy cutoff     =      40.0000  Ry
     charge density cutoff     =     600.0000  Ry
     convergence threshold     =      1.0E-10
     mixing beta               =       0.7000
     number of iterations used =            8  plain     mixing
     Exchange-correlation= SLA  PZ   NOGX NOGC
                           (   1   1   0   0   0   0   0)

     celldm(1)=   1.000000  celldm(2)=   0.000000  celldm(3)=   0.000000
     celldm(4)=   0.000000  celldm(5)=   0.000000  celldm(6)=   0.000000

     crystal axes: (cart. coord. in units of alat)
               a(1) = (  41.050143   0.000000   0.000000 )
               a(2) = (   0.000000  41.050143   0.000000 )
               a(3) = (   0.000000   0.000000  41.050143 )

     reciprocal axes: (cart. coord. in units 2 pi/alat)
               b(1) = (  0.024360  0.000000  0.000000 )
               b(2) = (  0.000000  0.024360  0.000000 )
               b(3) = (  0.000000  0.000000  0.024360 )

     PseudoPot. # 1 for Ge read from file:
     ./ge_lda_v1.uspp.F.UPF
     MD5 check sum: 575f587c0f86b3eee266efe92ef02c15
     Pseudo is Ultrasoft + core correction, Zval = 14.0
     Generated by new atomic code, or converted to UPF format
     Using radial grid of  873 points,  6 beta functions with:
                l(1) =   0
                l(2) =   0
                l(3) =   1
                l(4) =   1
                l(5) =   2
                l(6) =   2
     Q(r) pseudized with  8 coefficients,  rinner =    1.400   1.400   1.400
                                                       1.400   1.400

     PseudoPot. # 2 for Si read from file:
     ./si_lda_v1.uspp.F.UPF
     MD5 check sum: ca10e49b2835512e91ee5100d37237e0
     Pseudo is Ultrasoft + core correction, Zval =  4.0
     Generated by new atomic code, or converted to UPF format
     Using radial grid of  899 points,  6 beta functions with:
                l(1) =   0
                l(2) =   0
                l(3) =   1
                l(4) =   1
                l(5) =   2
                l(6) =   2
     Q(r) pseudized with  8 coefficients,  rinner =    0.900   0.900   0.900
                                                       0.900   0.900

     atomic species   valence    mass     pseudopotential
        Ge            14.00    72.61000     Ge( 1.00)
        Si             4.00    28.08550     Si( 1.00)

     24 Sym. Ops. (no inversion) found

   Cartesian axes

     site n.     atom                  positions (alat units)
         1           Ge  tau(   1) = (   0.0000000   0.0000000   0.0000000  )
         2           Si  tau(   2) = (  20.5250715  20.5250715  20.5250715  )
         3           Si  tau(   3) = (  20.5250715  20.5250715  30.7876073  )
         4           Si  tau(   4) = (  20.5250715  20.5250715   0.0000000  )
         5           Si  tau(   5) = (  20.5250715  20.5250715  10.2625357  )
         6           Si  tau(   6) = (  20.5250715  30.7876073  20.5250715  )
         7           Si  tau(   7) = (  20.5250715  30.7876073  30.7876073  )
         8           Si  tau(   8) = (  20.5250715  30.7876073   0.0000000  )
         9           Si  tau(   9) = (  20.5250715  30.7876073  10.2625357  )
        10           Si  tau(  10) = (  20.5250715   0.0000000  20.5250715  )
        11           Si  tau(  11) = (  20.5250715   0.0000000  30.7876073  )
        12           Si  tau(  12) = (  20.5250715   0.0000000   0.0000000  )
        13           Si  tau(  13) = (  20.5250715   0.0000000  10.2625357  )
        14           Si  tau(  14) = (  20.5250715  10.2625357  20.5250715  )
        15           Si  tau(  15) = (  20.5250715  10.2625357  30.7876073  )
        16           Si  tau(  16) = (  20.5250715  10.2625357   0.0000000  )
        17           Si  tau(  17) = (  20.5250715  10.2625357  10.2625357  )
        18           Si  tau(  18) = (  30.7876073  20.5250715  20.5250715  )
        19           Si  tau(  19) = (  30.7876073  20.5250715  30.7876073  )
        20           Si  tau(  20) = (  30.7876073  20.5250715   0.0000000  )
        21           Si  tau(  21) = (  30.7876073  20.5250715  10.2625357  )
        22           Si  tau(  22) = (  30.7876073  30.7876073  20.5250715  )
        23           Si  tau(  23) = (  30.7876073  30.7876073  30.7876073  )
        24           Si  tau(  24) = (  30.7876073  30.7876073   0.0000000  )
        25           Si  tau(  25) = (  30.7876073  30.7876073  10.2625357  )
        26           Si  tau(  26) = (  30.7876073   0.0000000  20.5250715  )
        27           Si  tau(  27) = (  30.7876073   0.0000000  30.7876073  )
        28           Si  tau(  28) = (  30.7876073   0.0000000   0.0000000  )
        29           Si  tau(  29) = (  30.7876073   0.0000000  10.2625357  )
        30           Si  tau(  30) = (  30.7876073  10.2625357  20.5250715  )
        31           Si  tau(  31) = (  30.7876073  10.2625357  30.7876073  )
        32           Si  tau(  32) = (  30.7876073  10.2625357   0.0000000  )
        33           Si  tau(  33) = (  30.7876073  10.2625357  10.2625357  )
        34           Si  tau(  34) = (   0.0000000  20.5250715  20.5250715  )
        35           Si  tau(  35) = (   0.0000000  20.5250715  30.7876073  )
        36           Si  tau(  36) = (   0.0000000  20.5250715   0.0000000  )
        37           Si  tau(  37) = (   0.0000000  20.5250715  10.2625357  )
        38           Si  tau(  38) = (   0.0000000  30.7876073  20.5250715  )
        39           Si  tau(  39) = (   0.0000000  30.7876073  30.7876073  )
        40           Si  tau(  40) = (   0.0000000  30.7876073   0.0000000  )
        41           Si  tau(  41) = (   0.0000000  30.7876073  10.2625357  )
        42           Si  tau(  42) = (   0.0000000   0.0000000  20.5250715  )
        43           Si  tau(  43) = (   0.0000000   0.0000000  30.7876073  )
        44           Si  tau(  44) = (   0.0000000   0.0000000  10.2625357  )
        45           Si  tau(  45) = (   0.0000000  10.2625357  20.5250715  )
        46           Si  tau(  46) = (   0.0000000  10.2625357  30.7876073  )
        47           Si  tau(  47) = (   0.0000000  10.2625357   0.0000000  )
        48           Si  tau(  48) = (   0.0000000  10.2625357  10.2625357  )
        49           Si  tau(  49) = (  10.2625357  20.5250715  20.5250715  )
        50           Si  tau(  50) = (  10.2625357  20.5250715  30.7876073  )
        51           Si  tau(  51) = (  10.2625357  20.5250715   0.0000000  )
        52           Si  tau(  52) = (  10.2625357  20.5250715  10.2625357  )
        53           Si  tau(  53) = (  10.2625357  30.7876073  20.5250715  )
        54           Si  tau(  54) = (  10.2625357  30.7876073  30.7876073  )
        55           Si  tau(  55) = (  10.2625357  30.7876073   0.0000000  )
        56           Si  tau(  56) = (  10.2625357  30.7876073  10.2625357  )
        57           Si  tau(  57) = (  10.2625357   0.0000000  20.5250715  )
        58           Si  tau(  58) = (  10.2625357   0.0000000  30.7876073  )
        59           Si  tau(  59) = (  10.2625357   0.0000000   0.0000000  )
        60           Si  tau(  60) = (  10.2625357   0.0000000  10.2625357  )
[...]
       498           Si  tau( 498) = (  12.8281697  23.0907054  33.3532412  )
       499           Si  tau( 499) = (  12.8281697  23.0907054   2.5656339  )
       500           Si  tau( 500) = (  12.8281697  23.0907054  12.8281697  )
       501           Si  tau( 501) = (  12.8281697  33.3532412  23.0907054  )
       502           Si  tau( 502) = (  12.8281697  33.3532412  33.3532412  )
       503           Si  tau( 503) = (  12.8281697  33.3532412   2.5656339  )
       504           Si  tau( 504) = (  12.8281697  33.3532412  12.8281697  )
       505           Si  tau( 505) = (  12.8281697   2.5656339  23.0907054  )
       506           Si  tau( 506) = (  12.8281697   2.5656339  33.3532412  )
       507           Si  tau( 507) = (  12.8281697   2.5656339   2.5656339  )
       508           Si  tau( 508) = (  12.8281697   2.5656339  12.8281697  )
       509           Si  tau( 509) = (  12.8281697  12.8281697  23.0907054  )
       510           Si  tau( 510) = (  12.8281697  12.8281697  33.3532412  )
       511           Si  tau( 511) = (  12.8281697  12.8281697   2.5656339  )
       512           Si  tau( 512) = (  12.8281697  12.8281697  12.8281697  )

     number of k points=     1  Gaussian smearing, width (Ry)=  0.0010
                       cart. coord. in units 2pi/alat
        k(    1) = (   0.0000000   0.0000000   0.0000000), wk =   2.0000000

     Initial potential from superposition of free atoms

     Self-consistent Calculation

     iteration #  1     ecut=    40.00 Ry     beta= 0.70

     Threshold (ethr) on eigenvalues was too large:
     Diagonalizing with lowered threshold

     total energy              =   -5126.82650614 Ry
     estimated scf accuracy    <      14.53670151 Ry

     Band energy sum           =      64.99726154 Ry

[...]

     total energy              =   -5128.14960992 Ry
     estimated scf accuracy    <          1.8E-10 Ry

[...]

     iteration # 20     ecut=    40.00 Ry     beta= 0.70

     End of self-consistent calculation

          k = 0.0000 0.0000 0.0000 (147954 PWs)   bands (ev):

   -18.3118 -18.3118 -18.3118 -18.2816 -18.2816  -5.9524  -5.7031  -5.6750
    -5.6750  -5.6750  -5.6749  -5.6749  -5.4554  -5.4078  -5.4078  -5.4078
    -5.4075  -5.4075  -5.4075  -5.4075  -5.4075  -5.4075  -5.4075  -5.4075
    -5.1772  -5.1482  -5.1482  -5.1482  -5.1480  -5.1479  -5.1479  -5.1479
    -4.8936  -4.8663  -4.8663  -4.8663  -4.8661  -4.8661  -4.7049  -4.6194
    -4.6194  -4.6194  -4.6184  -4.6184  -4.6184  -4.6184  -4.6184  -4.6184
    -4.6184  -4.6184  -4.6183  -4.6183  -4.6183  -4.6183  -4.6183  -4.6183
    -4.6183  -4.6183  -4.6183  -4.6182  -4.6182  -4.6182  -4.4473  -4.3916
    -4.3916  -4.3916  -4.3906  -4.3906  -4.3906  -4.3906  -4.3906  -4.3906
    -4.3906  -4.3906  -4.3906  -4.3905  -4.3905  -4.3905  -4.3905  -4.3905
    -4.3905  -4.3905  -4.3905  -4.3905  -4.3905  -4.3905  -3.9577  -3.9036
[...]
 | | | | | |- sddk::matrix_storage::set_num_extra                          1      67.29 ms       0.06      16.75      67.29 ms      67.29 ms      67.29 ms
 | | | | | | |- sddk::matrix_storage::set_num_extra|alloc                  1      67.28 ms       0.06      99.99      67.28 ms      67.28 ms      67.28 ms
 | | | | | |- sddk::matrix_storage::remap_backward                         1      55.18 ms       0.05      13.73      55.18 ms      55.18 ms      55.18 ms
 | | | | |- sirius::Beta_projectors_base::generate                         2       2.12 ms       0.00       0.23       1.06 ms     807.39 us       1.31 ms
 | | | | |- sirius::Beta_projectors_base::inner                            2     359.58 ms       0.31      39.30     179.79 ms     163.36 ms     196.22 ms
 | | | | | |- sirius::Beta_projectors_base::inner|comm                     2     213.69 ms       0.18      59.43     106.84 ms      99.63 ms     114.06 ms
 | | | | |- sirius::Non_local_operator::apply                              4     151.38 ms       0.13      16.55      37.60 ms      37.54 ms      38.64 ms
 | | | |- sirius::Band::set_subspace_mtrx                                  2     175.53 ms       0.15      10.74      87.77 ms      85.26 ms      90.27 ms
 | | | | |- sddk::inner                                                    2     175.10 ms       0.15      99.75      87.55 ms      85.05 ms      90.05 ms
 | | | | | |- sddk::inner|local                                            2      53.57 us       0.00       0.03      26.79 us      15.65 us      37.92 us
 | | | | | |- sddk::inner|device_copy                                      4      51.37 ms       0.04      29.34      12.76 ms       2.79 ms      23.06 ms
 | | | | | |- sddk::inner|store                                            4       9.89 ms       0.01       5.65       2.49 ms       1.85 ms       3.06 ms
 | | | |- Eigensolver_cuda|dsygvd                                          1     258.58 ms       0.22      15.82     258.58 ms     258.58 ms     258.58 ms
 | | | |- sddk::transform                                                  1      11.99 ms       0.01       0.73      11.99 ms      11.99 ms      11.99 ms
 | | | | |- sddk::transform|init                                           1      16.67 us       0.00       0.14      16.67 us      16.67 us      16.67 us
 | | | | |- sddk::transform|local                                          1      18.50 us       0.00       0.15      18.50 us      18.50 us      18.50 us
 | | |- sirius::Beta_projectors_base::dismiss                              1     817.00 ns       0.00       0.00     817.00 ns     817.00 ns     817.00 ns
 |
 |- qe|electrons                                                           1       99.82 s      85.59      85.59       99.82 s       99.82 s       99.82 s
 | |- sirius::Hamiltonian0                                                21     621.67 ms       0.53       0.62      27.81 ms      27.27 ms      51.96 ms
 | | |- sirius::Local_operator                                            21     591.80 ms       0.51      95.19      26.40 ms      25.87 ms      50.56 ms
 | | | |- sirius::Smooth_periodic_function                                21     109.77 ms       0.09      18.55       4.94 ms       4.81 ms      11.08 ms
 | | | |- sirius::Smooth_periodic_function::fft_transform                 21     343.14 ms       0.29      57.98      14.80 ms      14.34 ms      38.97 ms
 | | |- sirius::Non_local_operator                                        42       3.19 ms       0.00       0.51      76.60 us      58.83 us      83.93 us
 | | |- sirius::D_operator::initialize                                    21      13.58 ms       0.01       2.18     631.77 us     615.62 us     953.63 us
 | | |- sirius::Q_operator::initialize                                    21       8.71 ms       0.01       1.40     410.81 us     408.09 us     432.02 us
 | |
 | |- sirius::Band::solve                                                 21       71.65 s      61.44      71.79        2.51 s     714.92 ms       14.35 s
 | | |- sirius::Hamiltonian_k                                             21       8.19 ms       0.01       0.01     392.11 us     378.91 us     401.84 us
 | | | |- sirius::Local_operator::prepare_k                               21       8.04 ms       0.01      98.20     385.48 us     372.19 us     394.60 us
 | | | |- sirius::Beta_projectors_base::prepare                           21     103.13 us       0.00       1.26       4.92 us       3.90 us       5.69 us
 | | |- sirius::Band::diag_pseudo_potential_davidson                      21       71.64 s      61.43      99.99        2.51 s     714.49 ms       14.35 s
 | | | |- sirius::Band::diag_pseudo_potential_davidson|alloc              21     837.42 ms       0.72       1.17       8.43 ms       8.42 ms     668.79 ms
 | | | | |- sddk::matrix_storage::matrix_storage                         126     439.57 ms       0.38      52.49     395.00 ns     286.00 ns     439.50 ms
 | | | |- sirius::Hamiltonian_k::get_h_o_diag                             21     188.98 ms       0.16       0.26       8.97 ms       8.92 ms       9.64 ms
 | | | |- sirius::Band::diag_pseudo_potential_davidson|iter               21       70.48 s      60.44      98.38        2.49 s     690.63 ms       14.33 s
 | | | | |- sirius::Hamiltonian_k::apply_h_s                             101       21.75 s      18.65      30.85     119.02 ms      18.22 ms     604.05 ms
 | | | | | |- sirius::Local_operator::apply_h                            101        7.50 s       6.43      34.50      39.06 ms       7.26 ms     300.42 ms
 | | | | | | |- sddk::matrix_storage::remap_forward                      101        1.53 s       1.31      20.41       9.50 ms       4.02 ms     129.48 ms
 | | | | | | | |- sddk::matrix_storage::set_num_extra                    101      40.58 ms       0.03       2.65       2.92 us       2.39 us      40.18 ms
 | | | | | | | | |- sddk::matrix_storage::set_num_extra|alloc             21      40.30 ms       0.03      99.31       6.35 us       5.62 us      40.18 ms
 | | | | | | |- sddk::matrix_storage::set_num_extra                      101      41.12 ms       0.04       0.55       3.16 us       1.29 us      40.70 ms
 | | | | | | | |- sddk::matrix_storage::set_num_extra|alloc               21      40.85 ms       0.04      99.36       7.88 us       6.96 us      40.70 ms
 | | | | | | |- sddk::matrix_storage::remap_backward                     101        1.51 s       1.30      20.18       8.40 ms     759.53 us      44.70 ms
 | | | | | |- sirius::Beta_projectors_base::generate                     202     172.64 ms       0.15       0.79     792.31 us     779.57 us       1.11 ms
 | | | | | |- sirius::Beta_projectors_base::inner                        202        9.28 s       7.96      42.67      26.90 ms     757.97 us     126.54 ms
 | | | | | | |- sirius::Beta_projectors_base::inner|comm                 202        6.01 s       5.15      64.73      17.53 ms     145.22 us      90.44 ms
 | | | | | |- sirius::Non_local_operator::apply                          404        4.79 s       4.11      22.02       7.12 ms       1.87 ms      24.32 ms
 | | | | |- sddk::orthogonalize                                          101        3.95 s       3.39       5.61      30.44 ms     993.30 us     149.18 ms
 | | | | | |- sddk::inner                                                181        2.42 s       2.08      61.26       5.29 ms      72.78 us      64.99 ms
 | | | | | | |- sddk::inner|local                                        181       3.65 ms       0.00       0.15      20.29 us       8.24 us      41.84 us
 | | | | | | |- sddk::inner|device_copy                                  362     681.37 ms       0.58      28.15     610.78 us       9.12 us      15.70 ms
 | | | | | | |- sddk::inner|store                                        362     102.23 ms       0.09       4.22     102.03 us       1.85 us       1.56 ms
 | | | | | |- sddk::orthogonalize|tmtrx                                  101     241.67 ms       0.21       6.12     535.99 us      19.68 us       9.95 ms
 | | | | | |- sddk::orthogonalize|transform                              101     505.16 ms       0.43      12.78       1.35 ms      30.54 us      12.75 ms
 | | | | | |- sddk::transform                                             80     783.34 ms       0.67      19.82       6.79 ms     467.19 us      36.83 ms
 | | | | | | |- sddk::transform|init                                      80       1.21 ms       0.00       0.15      13.76 us      12.64 us      26.04 us
 | | | | | | |- sddk::transform|local                                    240       1.92 ms       0.00       0.25       6.11 us       3.48 us      22.72 us
 | | | | |- sirius::Band::set_subspace_mtrx                              101        3.09 s       2.65       4.39      25.72 ms       1.41 ms     109.23 ms
 | | | | | |- sddk::inner                                                101        2.36 s       2.02      76.28      15.86 ms     339.38 us      98.47 ms
 | | | | | | |- sddk::inner|local                                        101       4.22 ms       0.00       0.18      34.98 us      17.01 us      69.89 us
 | | | | | | |- sddk::inner|device_copy                                  202     692.78 ms       0.59      29.37       1.05 ms      12.97 us      24.07 ms
 | | | | | | |- sddk::inner|store                                        202     106.99 ms       0.09       4.54     363.97 us       7.65 us       3.33 ms
 | | | | |- sirius::Band::diag_pseudo_potential_davidson|evp             101       40.46 s      34.69      57.40     304.08 ms     103.06 ms        1.10 s
 | | | | | |- Eigensolver_cuda|dsyevd                                    101       40.46 s      34.69     100.00     304.08 ms     103.05 ms        1.10 s
 | | | | |- sirius::residuals                                            101     912.33 ms       0.78       1.29       5.90 ms      10.69 us      33.95 ms
 | | | | | |- sddk::transform                                             85     605.16 ms       0.52      66.33       5.08 ms     338.25 us      25.44 ms
 | | | | | | |- sddk::transform|init                                      85       1.21 ms       0.00       0.20      13.79 us      12.08 us      19.90 us
 | | | | | | |- sddk::transform|local                                    170       2.68 ms       0.00       0.44      14.20 us       5.00 us      38.25 us
 | | | | | |- sirius::normalized_preconditioned_residuals                 85     201.88 ms       0.17      22.13       1.52 ms     258.63 us      12.37 ms
 | | | | |- sirius::Band::diag_pseudo_potential_davidson|update_phi       21     320.29 ms       0.27       0.45      15.66 ms       7.25 ms      27.75 ms
 | | | | | |- sddk::transform                                             21     320.14 ms       0.27      99.95      15.65 ms       7.25 ms      27.74 ms
 | | | | | | |- sddk::transform|init                                      21     224.07 us       0.00       0.07      11.62 us       5.54 us      16.43 us
 | | | | | | |- sddk::transform|local                                     21     384.02 us       0.00       0.12      18.38 us      15.58 us      25.84 us
 | | |- sirius::Beta_projectors_base::dismiss                             21      15.24 us       0.00       0.00     702.00 ns     604.00 ns       1.00 us
 | | |- sirius::K_point_set::sync_band_energies                           21     379.08 us       0.00       0.00      16.88 us      15.86 us      34.54 us
 | |
 | |- qe|sum_band                                                         21       12.65 s      10.84      12.67     595.96 ms     551.89 ms     688.70 ms
 | | |- sirius::Density::generate                                         21       10.13 s       8.69      80.12     478.17 ms     433.85 ms     555.37 ms
 | | | |- sirius::Density::generate_valence                               21       10.13 s       8.69     100.00     478.17 ms     433.85 ms     555.37 ms
 | | | | |- sddk::matrix_storage::remap_forward                           21     501.63 ms       0.43       4.95      23.52 ms      20.63 ms      32.55 ms
 | | | | | |- sddk::matrix_storage::set_num_extra                         21     138.35 us       0.00       0.03       6.50 us       5.70 us       9.91 us
 | | | | | | |- sddk::matrix_storage::set_num_extra|alloc                  1       6.16 us       0.00       4.45       6.16 us       6.16 us       6.16 us
 | | | | |- sirius::Density::add_k_point_contribution_dm                  21        3.61 s       3.10      35.67     169.81 ms     144.93 ms     211.54 ms
 | | | | | |- sirius::Beta_projectors_base::prepare                       21     229.17 us       0.00       0.01      10.94 us      10.40 us      11.48 us
 | | | | | |- sirius::Beta_projectors_base::generate                      42      33.96 ms       0.03       0.94     809.03 us     784.15 us     831.56 us
 | | | | | |- sirius::Beta_projectors_base::inner                         42        3.56 s       3.06      98.61      80.40 ms      70.00 ms     117.35 ms
 | | | | | | |- sirius::Beta_projectors_base::inner|comm                  42        2.29 s       1.97      64.37      50.03 ms      40.26 ms      86.25 ms
 | | | | | |- sirius::Beta_projectors_base::dismiss                       21       9.07 us       0.00       0.00     434.00 ns     325.00 ns     520.00 ns
 | | | | |- sirius::Density::add_k_point_contribution_rg                  21        1.05 s       0.90      10.41      49.57 ms      49.32 ms      64.75 ms
 | | | | |- sirius::Smooth_periodic_function::fft_transform               21     184.31 ms       0.16       1.82       8.77 ms       8.75 ms       8.81 ms
 | | | | |- sirius::Density::augment                                      21        2.95 s       2.53      29.16     140.13 ms     140.09 ms     152.03 ms
 | | | | | |- sirius::Density::generate_rho_aug                           21        2.95 s       2.53      99.87     139.94 ms     139.91 ms     151.84 ms
 | | |- sirius_api::sirius_get_pw_coeffs                                  21        2.12 s       1.82      16.77     100.16 ms      99.55 ms     115.27 ms
 | | | |- sirius::Smooth_periodic_function::gather_f_pw                   21        1.82 s       1.56      85.81      85.82 ms      85.24 ms     100.94 ms
 | | |- qe|sym_rho                                                        21      32.67 us       0.00       0.00       1.37 us       1.19 us       4.65 us
 | |
 | |- qe|mix                                                              21     574.36 ms       0.49       0.58      30.61 ms     408.95 us      34.17 ms
 | |- sirius_api::sirius_set_pw_coeffs                                    20        9.99 s       8.56      10.01     488.93 ms     469.87 ms     585.44 ms
 | | |- sirius::Smooth_periodic_function::fft_transform                   20      99.50 ms       0.09       1.00       4.66 ms       4.21 ms       7.19 ms
 | |
 | |- qe|newd                                                             20        2.88 s       2.47       2.89     143.94 ms     143.81 ms     148.00 ms
 | | |- sirius::Potential::generate_D_operator_matrix                     20        2.85 s       2.45      98.93     142.39 ms     142.26 ms     146.46 ms
 |
 |- sirius_api::sirius_get_wave_functions                                  1        2.54 s       2.18       2.18        2.54 s        2.54 s        2.54 s
 | |- sddk::matrix_storage::matrix_storage                                 1      16.75 us       0.00       0.00      16.75 us      16.75 us      16.75 us
 |
 |- qe|ions                                                                1     471.70 ms       0.40       0.40     471.70 ms     471.70 ms     471.70 ms
 | |- sirius_api::sirius_set_pw_coeffs                                     1     469.96 ms       0.40      99.63     469.96 ms     469.96 ms     469.96 ms
 | | |- sirius::Smooth_periodic_function::fft_transform                    1       5.06 ms       0.00       1.08       5.06 ms       5.06 ms       5.06 ms
 |
 |- qe|punch                                                               1     625.00 ns       0.00       0.00     625.00 ns     625.00 ns     625.00 ns
 |- sirius::finalize                                                       1     110.13 ms       0.09       0.09     110.13 ms     110.13 ms     110.13 ms

Batch Job Summary Report for Job "test_scf" (20934932) on daint
2020-03-10T15:12:38 2020-03-10T15:12:38 2020-03-10T15:32:00 2020-03-10T15:35:06   00:03:06   00:20:00
Username    Account     Partition   NNodes   Energy
antonk      csstaff     normal          36  954.85K joules
gpusecs  maxgpusecs        maxmem            summem
   2279        2279    5416943616      214441132032
Scratch File System        Files       Quota
/scratch/snx3000            2679     1000000