     Program PWSCF v.7.3.1 starts on 18Dec2024 at 18:33:43
        Git branch: ristretto
        Last git commit: 5978a25bcb3df34c6f4fdb4b798ec96683174263-dirty
        Last git commit date: Wed Dec 18 18:13:17 2024 +0200

     Reading input from pw.in

     Current dimensions of program PWSCF are:
     Max number of different atomic species (ntypx) = 10
     Max number of k-points (npk) =  40000
     Max angular momentum in pseudopotentials (lmaxx) =  4

     K-points division:     npool     =     112
     Subspace diagonalization in iterative solution of the eigenvalue problem:
     a serial algorithm will be used

     Using Slab Decomposition

     bravais-lattice index     =            0
     lattice parameter (alat)  =      28.4929  a.u.
     unit-cell volume          =   17221.4253 (a.u.)^3
     number of atoms/cell      =          144
     number of atomic types    =            2
     number of electrons       =      1152.00
     number of Kohn-Sham states=          691
     kinetic-energy cutoff     =      35.0000  Ry
     charge density cutoff     =     360.0000  Ry
     scf convergence threshold =      1.4E-06
     mixing beta               =       0.2500
     number of iterations used =            8  plain     mixing
     Exchange-correlation= SLA  PW   PBE  PBE
                           (   1   4   3   4   0   0   0)

     celldm(1)=  28.492913  celldm(2)=   0.000000  celldm(3)=   0.000000
     celldm(4)=   0.000000  celldm(5)=   0.000000  celldm(6)=   0.000000

     crystal axes: (cart. coord. in units of alat)
               a(1) = (   1.000000   0.000000   0.000000 )
               a(2) = (  -0.000000   0.702408   0.266165 )
               a(3) = (   0.000000   0.000000   1.059911 )

     reciprocal axes: (cart. coord. in units 2 pi/alat)
               b(1) = (  1.000000  0.000000 -0.000000 )
               b(2) = (  0.000000  1.423674  0.000000 )
               b(3) = (  0.000000 -0.357513  0.943476 )

     PseudoPot. # 1 for Si read from file:
     ./Si.pbe-n-rrkjus_psl.1.0.0.UPF
     MD5 check sum: d928fff27e2cf23ab01de9cd48acd62a
     Pseudo is Ultrasoft + core correction, Zval =  4.0
     Generated using "atomic" code by A. Dal Corso  v.5.1
     Using radial grid of 1141 points,  6 beta functions with:
                l(1) =   0
                l(2) =   0
                l(3) =   1
                l(4) =   1
                l(5) =   2
                l(6) =   2
     Q(r) pseudized with 0 coefficients

     PseudoPot. # 2 for Zr read from file:
     ./Zr_pbe_v1.uspp.F.UPF
     MD5 check sum: 5db81b1e868ab7776c4564c113de050b
     Pseudo is Ultrasoft + core correction, Zval = 12.0
     Generated by new atomic code, or converted to UPF format
     Using radial grid of  887 points,  6 beta functions with:
                l(1) =   0
                l(2) =   0
                l(3) =   1
                l(4) =   1
                l(5) =   2
                l(6) =   2
     Q(r) pseudized with  6 coefficients,  rinner =    1.200   1.200   1.200
                                                       1.200   1.200

     atomic species   valence    mass     pseudopotential
     Si                4.00    28.08550     Si( 1.00)
     Zr               12.00    91.22400     Zr( 1.00)

     No symmetry found

                                    s                        frac. trans.

      isym =  1     identity

 cryst.   s( 1) = (     1          0          0      )
                  (     0          1          0      )
                  (     0          0          1      )

 cart.    s( 1) = (  1.0000000  0.0000000  0.0000000 )
                  (  0.0000000  1.0000000  0.0000000 )
                  (  0.0000000  0.0000000  1.0000000 )

   Cartesian axes

     site n.     atom                  positions (alat units)
         1        Zr     tau(   1) = (   0.0600390   0.2026925   0.1823806  )
         2        Zr     tau(   2) = (   0.0583031   0.2024820   0.5294863  )
         3        Zr     tau(   3) = (   0.0645079   0.2047530   0.8867295  )
         4        Zr     tau(   4) = (   0.0674080   0.4354037   0.2688258  )
         5        Zr     tau(   5) = (   0.0622072   0.4343371   0.6257549  )
         6        Zr     tau(   6) = (   0.0610856   0.4302865   0.9769583  )
         7        Zr     tau(   7) = (   0.0610811   0.6658715   0.3514398  )
         8        Zr     tau(   8) = (   0.0600519   0.6687996   0.7138705  )
         9        Zr     tau(   9) = (   0.0677565   0.6680841   1.0631245  )
        10        Zr     tau(  10) = (   0.3113778   0.1952392   0.1767419  )
        11        Zr     tau(  11) = (   0.3087878   0.2037258   0.5329710  )
        12        Zr     tau(  12) = (   0.3102462   0.1953458   0.8847729  )
        13        Zr     tau(  13) = (   0.3126065   0.4390940   0.2649307  )
        14        Zr     tau(  14) = (   0.3133854   0.4380484   0.6168313  )
        15        Zr     tau(  15) = (   0.3116158   0.4291664   0.9726454  )
        16        Zr     tau(  16) = (   0.3111810   0.6638518   0.3535087  )
        17        Zr     tau(  17) = (   0.3173842   0.6678495   0.7071845  )
        18        Zr     tau(  18) = (   0.3149300   0.6701685   1.0581046  )
        19        Zr     tau(  19) = (   0.5600427   0.2043708   0.1804887  )
        20        Zr     tau(  20) = (   0.5587581   0.1969489   0.5337247  )
        21        Zr     tau(  21) = (   0.5621030   0.1973213   0.8895160  )
        22        Zr     tau(  22) = (   0.5596873   0.4387258   0.2678280  )
        23        Zr     tau(  23) = (   0.5674439   0.4345514   0.6223639  )
        24        Zr     tau(  24) = (   0.5618754   0.4293549   0.9756393  )
        25        Zr     tau(  25) = (   0.5615434   0.6706228   0.3511473  )
        26        Zr     tau(  26) = (   0.5670913   0.6662007   0.7077045  )
        27        Zr     tau(  27) = (   0.5673904   0.6680850   1.0645144  )
        28        Zr     tau(  28) = (   0.8116062   0.1949331   0.1779607  )
        29        Zr     tau(  29) = (   0.8134797   0.2046024   0.5290351  )
        30        Zr     tau(  30) = (   0.8097120   0.1974535   0.8814129  )
        31        Zr     tau(  31) = (   0.8151114   0.4367118   0.2710792  )
        32        Zr     tau(  32) = (   0.8175841   0.4329118   0.6211190  )
        33        Zr     tau(  33) = (   0.8173180   0.4324095   0.9725577  )
        34        Zr     tau(  34) = (   0.8140145   0.6635915   0.3542615  )
        35        Zr     tau(  35) = (   0.8090750   0.6653596   0.7065157  )
        36        Zr     tau(  36) = (   0.8084730   0.6710923   1.0603009  )
        37        Zr     tau(  37) = (   0.1918300   0.0309677   0.2630997  )
        38        Zr     tau(  38) = (   0.1831938   0.0340586   0.6137972  )
        39        Zr     tau(  39) = (   0.1858369   0.0289871   0.9696391  )
        40        Zr     tau(  40) = (   0.1906934   0.2645613   0.3545986  )
        41        Zr     tau(  41) = (   0.1882438   0.2726982   0.7082123  )
        42        Zr     tau(  42) = (   0.1842574   0.2715251   1.0564493  )
        43        Zr     tau(  43) = (   0.1920679   0.5034189   0.4434767  )
        44        Zr     tau(  44) = (   0.1916450   0.5021196   0.7976484  )
        45        Zr     tau(  45) = (   0.1853314   0.5001343   1.1432951  )
        46        Zr     tau(  46) = (   0.4350348   0.0309386   0.2600237  )
        47        Zr     tau(  47) = (   0.4353431   0.0382541   0.6145827  )
        48        Zr     tau(  48) = (   0.4377477   0.0321026   0.9751508  )
        49        Zr     tau(  49) = (   0.4343654   0.2690207   0.3565016  )
        50        Zr     tau(  50) = (   0.4427659   0.2683250   0.7049978  )
        51        Zr     tau(  51) = (   0.4333277   0.2707302   1.0569257  )
        52        Zr     tau(  52) = (   0.4401636   0.5041364   0.4452262  )
        53        Zr     tau(  53) = (   0.4417913   0.4992727   0.7952207  )
        54        Zr     tau(  54) = (   0.4385574   0.5028940   1.1424817  )
        55        Zr     tau(  55) = (   0.6828114   0.0361165   0.2648828  )
        56        Zr     tau(  56) = (   0.6878913   0.0392854   0.6169316  )
        57        Zr     tau(  57) = (   0.6915312   0.0308610   0.9716433  )
        58        Zr     tau(  58) = (   0.6846103   0.2724963   0.3514552  )
        59        Zr     tau(  59) = (   0.6831040   0.2697293   0.7081218  )
        60        Zr     tau(  60) = (   0.6869500   0.2715959   1.0549418  )
[...]
       130        Si     tau( 130) = (   0.5611161   0.3659318   0.4415336  )
       131        Si     tau( 131) = (   0.5624009   0.3650572   0.7940219  )
       132        Si     tau( 132) = (   0.5665274   0.3704686   1.1478667  )
       133        Si     tau( 133) = (   0.5616936   0.5986345   0.5253014  )
       134        Si     tau( 134) = (   0.5612337   0.6044914   0.8850421  )
       135        Si     tau( 135) = (   0.5672288   0.6022856   1.2351983  )
       136        Si     tau( 136) = (   0.8113615   0.1304177   0.3478920  )
       137        Si     tau( 137) = (   0.8166657   0.1371594   0.7053021  )
       138        Si     tau( 138) = (   0.8100480   0.1308615   1.0546895  )
       139        Si     tau( 139) = (   0.8128208   0.3728441   0.4337645  )
       140        Si     tau( 140) = (   0.8095092   0.3666561   0.7945047  )
       141        Si     tau( 141) = (   0.8127213   0.3651186   1.1474154  )
       142        Si     tau( 142) = (   0.8127679   0.6003724   0.5225253  )
       143        Si     tau( 143) = (   0.8149392   0.6072367   0.8830673  )
       144        Si     tau( 144) = (   0.8094511   0.6071092   1.2305604  )

   Crystallographic axes

     site n.     atom                  positions (cryst. coord.)
         1        Zr     tau(   1) = (  0.0600390  0.2885682  0.0996065  )
         2        Zr     tau(   2) = (  0.0583031  0.2882685  0.4271675  )
         3        Zr     tau(   3) = (  0.0645079  0.2915016  0.7634059  )
         4        Zr     tau(   4) = (  0.0674080  0.6198730  0.0979681  )
         5        Zr     tau(   5) = (  0.0622072  0.6183546  0.4351034  )
         6        Zr     tau(   6) = (  0.0610856  0.6125879  0.7679034  )
         7        Zr     tau(   7) = (  0.0610811  0.9479843  0.0935171  )
         8        Zr     tau(   8) = (  0.0600519  0.9521529  0.4344149  )
         9        Zr     tau(   9) = (  0.0677565  0.9511343  0.7641833  )
        10        Zr     tau(  10) = (  0.3113778  0.2779571  0.0969511  )
        11        Zr     tau(  11) = (  0.3087878  0.2900392  0.4300106  )
        12        Zr     tau(  12) = (  0.3102462  0.2781088  0.7649231  )
        13        Zr     tau(  13) = (  0.3126065  0.6251269  0.0929738  )
        14        Zr     tau(  14) = (  0.3133854  0.6236382  0.4253573  )
        15        Zr     tau(  15) = (  0.3116158  0.6109932  0.7642347  )
        16        Zr     tau(  16) = (  0.3111810  0.9451089  0.0961911  )
        17        Zr     tau(  17) = (  0.3173842  0.9508003  0.4284465  )
        18        Zr     tau(  18) = (  0.3149300  0.9541018  0.7587021  )
        19        Zr     tau(  19) = (  0.5600427  0.2909575  0.0972214  )
[...]
├ wf::inner_diag                                                 386     319.31 ms       0.25     100.00     605.20 us     313.03 us       2.60 ms
├ sirius::Hamiltonian0                                            23     308.74 ms       0.24     100.00      12.05 ms      11.45 ms      24.20 ms
├ init_us_1                                                        1     254.28 ms       0.20     100.00     254.28 ms     254.28 ms     254.28 ms
├ sirius::Density                                                  2     251.12 ms       0.20     100.00     125.56 ms      35.34 ms     215.78 ms
├ sirius::Density::update                                          2     239.23 ms       0.19     100.00     119.62 ms      29.99 ms     209.24 ms
├ sirius::Density::generate_pseudo_core_charge_density             2     239.19 ms       0.19     100.00     119.60 ms      29.98 ms     209.21 ms
├ newd                                                             1     224.64 ms       0.18     100.00     224.64 ms     224.64 ms     224.64 ms
├ sirius::Unit_cell::update                                        2     222.50 ms       0.18     100.00     111.25 ms      11.02 ms     211.48 ms
├ sirius::Unit_cell::initialize                                    1     214.44 ms       0.17     100.00     214.44 ms     214.44 ms     214.44 ms
├ sirius::Unit_cell::get_symmetry                                  2     204.22 ms       0.16     100.00     102.11 ms       2.15 ms     202.07 ms
├ sirius::Crystal_symmetry                                         2     202.55 ms       0.16     100.00     101.27 ms       1.85 ms     200.70 ms
├ sirius::Crystal_symmetry|spg                                     2     201.03 ms       0.16     100.00     100.52 ms       1.39 ms     199.64 ms
├ sirius::K_point_set::find_band_occupancies                      22     199.63 ms       0.16     100.00       7.08 ms       6.23 ms      26.84 ms
├ sirius::Density::mix                                            22     184.95 ms       0.15     100.00       9.43 ms       2.41 ms      14.37 ms
├ sirius::Local_operator                                          23     184.14 ms       0.15     100.00       6.69 ms       6.04 ms      18.17 ms
├ sirius::inner::spf                                             309     168.99 ms       0.13     100.00     372.39 us     360.94 us       4.34 ms
├ sirius::Augmentation_operator::generate_pw_coeffs                2     157.46 ms       0.12     100.00      78.73 ms      50.24 ms     107.21 ms
├ sirius::inner::pf                                              236     141.81 ms       0.11     100.00     384.84 us     365.32 us       4.34 ms
├ sirius::K_point::generate_atomic_wave_functions                  1     139.23 ms       0.11     100.00     139.23 ms     139.23 ms     139.23 ms
├ fft::Gvec::find_z_columns                                      114     138.15 ms       0.11     100.00     932.88 us     897.55 us      24.12 ms
├ sirius::initialize_subspace|kp|wf                                1     119.93 ms       0.09     100.00     119.93 ms     119.93 ms     119.93 ms
├ fft::Gvec::find_z_columns|add                                  114     118.27 ms       0.09     100.00     873.78 us     842.09 us      14.08 ms
├ sirius::Density::mixer_output                                   22     117.98 ms       0.09     100.00       6.55 ms     800.94 us       8.56 ms
├ v_h                                                              1     107.79 ms       0.09     100.00     107.79 ms     107.79 ms     107.79 ms
├ sirius::Potential                                                1      90.07 ms       0.07     100.00      90.07 ms      90.07 ms      90.07 ms
├ sirius::Potential::update                                        1      88.30 ms       0.07     100.00      88.30 ms      88.30 ms      88.30 ms
├ qvan2                                                          684      83.04 ms       0.07     100.00      91.33 us     901.00 ns     409.81 us
├ api::sirius::get_pw_coeffs                                       1      81.59 ms       0.06     100.00      81.59 ms      81.59 ms      81.59 ms
├ sirius::Q_operator::initialize                                  23      75.74 ms       0.06     100.00       3.33 ms       3.12 ms       3.55 ms
├ init_vloc                                                        1      68.89 ms       0.05     100.00      68.89 ms      68.89 ms      68.89 ms
├ sirius::K_point_set::sync_band                                  44      63.73 ms       0.05     100.00     922.66 us     743.80 us       7.69 ms
├ fft::Gvec::find_gvec_shells                                      2      61.00 ms       0.05     100.00      30.50 ms      11.35 ms      49.65 ms
├ api::sirius::set_pw_coeffs                                       1      53.90 ms       0.04     100.00      53.90 ms      53.90 ms      53.90 ms
├ wf::axpby                                                      193      48.86 ms       0.04     100.00     100.20 us      33.62 us       1.08 ms
├ sirius::Potential::generate_local_potential                      1      48.35 ms       0.04     100.00      48.35 ms      48.35 ms      48.35 ms
├ sirius::D_operator::initialize                                  23      43.73 ms       0.03     100.00       1.88 ms       1.85 ms       2.13 ms
├ sirius::Smooth_periodic_function::gather_f_pw                    2      35.69 ms       0.03     100.00      17.84 ms      17.13 ms      18.56 ms
├ sirius::Potential::poisson                                      23      29.42 ms       0.02     100.00       1.20 ms       1.11 ms       2.17 ms
├ fft::Gvec_shells                                                 1      26.08 ms       0.02     100.00      26.08 ms      26.08 ms      26.08 ms
├ sirius::Unit_cell::find_nearest_neighbours                       2      18.20 ms       0.01     100.00       9.10 ms       8.84 ms       9.36 ms
├ fft::Gvec::find_z_columns|sym                                  114      12.72 ms       0.01     100.00      30.00 ns      20.00 ns       9.76 ms
├ sirius::Hamiltonian_k                                           23       8.90 ms       0.01     100.00     342.11 us     261.31 us       1.27 ms
├ sirius::Local_operator::prepare_k                               23       8.84 ms       0.01     100.00     340.90 us     256.95 us       1.27 ms
├ sirius::Periodic_function::integrate                            23       8.41 ms       0.01     100.00     353.49 us     350.03 us     568.01 us
├ sirius::Beta_projector_generator::generate                     238       7.24 ms       0.01     100.00       8.75 us       5.84 us       5.06 ms
├ beta_projectors_generate_gpu                                   238       7.13 ms       0.01     100.00       8.23 us       5.66 us       5.05 ms
├ fft::Gvec::find_z_columns|sort                                 114       6.45 ms       0.01     100.00      53.85 us      45.54 us     229.90 us
├ sirius::Beta_projectors::generate_pw_coefs_t                     1       6.43 ms       0.01     100.00       6.43 ms       6.43 ms       6.43 ms
├ sirius::divergence                                              46       4.53 ms       0.00     100.00     101.14 us      81.32 us     115.39 us
├ sirius::gradient                                                23       3.16 ms       0.00     100.00     136.15 us     128.72 us     152.65 us
├ sirius::Density::mixer_input                                    22       2.94 ms       0.00     100.00     131.53 us     119.57 us     185.80 us
├ sirius::Atom_type::init                                          2       2.78 ms       0.00     100.00       1.39 ms     133.86 us       2.64 ms
├ sirius::Non_local_operator                                      46       1.54 ms       0.00     100.00      26.08 us      14.63 us      62.27 us
├ sirius::apply_preconditioner                                   193       1.43 ms       0.00     100.00       7.38 us       5.47 us      17.11 us
├ sirius::dot                                                     23       1.42 ms       0.00     100.00      56.49 us      48.39 us     181.27 us
├ wfcinit                                                          1       1.24 ms       0.00     100.00       1.24 ms       1.24 ms       1.24 ms
├ sirius::Simulation_context::init_comm                            1     821.02 us       0.00     100.00     821.02 us     821.02 us     821.02 us
├ sirius::Periodic_function::add                                  46     767.77 us       0.00     100.00      16.70 us      14.38 us      19.16 us
├ sirius::find_sym_atom                                            4     567.73 us       0.00     100.00     137.64 us     128.61 us     163.85 us
├ sirius::Crystal_symmetry|mag                                     2     347.69 us       0.00     100.00     173.85 us       1.78 us     345.91 us
├ sirius::make_periodic_function                                   3     185.44 us       0.00     100.00      69.12 us      23.04 us      93.28 us
├ sirius::Density::get_magnetisation                              23      60.77 us       0.00     100.00       1.45 us       1.27 us       8.06 us
├ sirius::symmetrize_density_matrix                               22      11.84 us       0.00     100.00     481.00 ns     160.00 ns       2.41 us
├ sirius::Potential::generate_PAW_effective_potential             23       8.86 us       0.00     100.00     230.00 ns     200.00 ns       3.86 us
└ ions                                                             1       5.53 us       0.00     100.00       5.53 us       5.53 us       5.53 us

Note: The following floating-point exceptions are signalling: IEEE_UNDERFLOW_FLAG IEEE_DENORMAL
Note: The following floating-point exceptions are signalling: IEEE_UNDERFLOW_FLAG IEEE_DENORMAL
Note: The following floating-point exceptions are signalling: IEEE_UNDERFLOW_FLAG IEEE_DENORMAL
Note: The following floating-point exceptions are signalling: IEEE_UNDERFLOW_FLAG IEEE_DENORMAL
Note: The following floating-point exceptions are signalling: IEEE_UNDERFLOW_FLAG IEEE_DENORMAL
Note: The following floating-point exceptions are signalling: IEEE_UNDERFLOW_FLAG IEEE_DENORMAL
Note: The following floating-point exceptions are signalling: IEEE_UNDERFLOW_FLAG IEEE_DENORMAL
Note: The following floating-point exceptions are signalling: IEEE_UNDERFLOW_FLAG IEEE_DENORMAL
Note: The following floating-point exceptions are signalling: IEEE_UNDERFLOW_FLAG IEEE_DENORMAL
Note: The following floating-point exceptions are signalling: IEEE_UNDERFLOW_FLAG IEEE_DENORMAL
Note: The following floating-point exceptions are signalling: IEEE_UNDERFLOW_FLAG IEEE_DENORMAL
Note: The following floating-point exceptions are signalling: IEEE_UNDERFLOW_FLAG IEEE_DENORMAL
Note: The following floating-point exceptions are signalling: IEEE_UNDERFLOW_FLAG IEEE_DENORMAL
Note: The following floating-point exceptions are signalling: IEEE_UNDERFLOW_FLAG IEEE_DENORMAL
Note: The following floating-point exceptions are signalling: IEEE_UNDERFLOW_FLAG IEEE_DENORMAL
Note: The following floating-point exceptions are signalling: IEEE_UNDERFLOW_FLAG IEEE_DENORMAL
Note: The following floating-point exceptions are signalling: IEEE_UNDERFLOW_FLAG IEEE_DENORMAL
Note: The following floating-point exceptions are signalling: IEEE_UNDERFLOW_FLAG IEEE_DENORMAL
Note: The following floating-point exceptions are signalling: IEEE_UNDERFLOW_FLAG IEEE_DENORMAL
Note: The following floating-point exceptions are signalling: IEEE_UNDERFLOW_FLAG IEEE_DENORMAL
Note: The following floating-point exceptions are signalling: IEEE_UNDERFLOW_FLAG IEEE_DENORMAL
Note: The following floating-point exceptions are signalling: IEEE_UNDERFLOW_FLAG IEEE_DENORMAL
Note: The following floating-point exceptions are signalling: IEEE_UNDERFLOW_FLAG IEEE_DENORMAL
Note: The following floating-point exceptions are signalling: IEEE_UNDERFLOW_FLAG IEEE_DENORMAL
Note: The following floating-point exceptions are signalling: IEEE_UNDERFLOW_FLAG IEEE_DENORMAL
Note: The following floating-point exceptions are signalling: IEEE_UNDERFLOW_FLAG IEEE_DENORMAL
Note: The following floating-point exceptions are signalling: IEEE_UNDERFLOW_FLAG IEEE_DENORMAL
Note: The following floating-point exceptions are signalling: IEEE_UNDERFLOW_FLAG IEEE_DENORMAL
Note: The following floating-point exceptions are signalling: IEEE_UNDERFLOW_FLAG IEEE_DENORMAL
Note: The following floating-point exceptions are signalling: IEEE_UNDERFLOW_FLAG IEEE_DENORMAL
Note: The following floating-point exceptions are signalling: IEEE_UNDERFLOW_FLAG IEEE_DENORMAL
Note: The following floating-point exceptions are signalling: IEEE_UNDERFLOW_FLAG IEEE_DENORMAL
Note: The following floating-point exceptions are signalling: IEEE_UNDERFLOW_FLAG IEEE_DENORMAL
Note: The following floating-point exceptions are signalling: IEEE_UNDERFLOW_FLAG IEEE_DENORMAL
Note: The following floating-point exceptions are signalling: IEEE_UNDERFLOW_FLAG IEEE_DENORMAL
Note: The following floating-point exceptions are signalling: IEEE_UNDERFLOW_FLAG IEEE_DENORMAL
Note: The following floating-point exceptions are signalling: IEEE_UNDERFLOW_FLAG IEEE_DENORMAL
Note: The following floating-point exceptions are signalling: IEEE_UNDERFLOW_FLAG IEEE_DENORMAL
Note: The following floating-point exceptions are signalling: IEEE_UNDERFLOW_FLAG IEEE_DENORMAL
Note: The following floating-point exceptions are signalling: IEEE_UNDERFLOW_FLAG IEEE_DENORMAL
Note: The following floating-point exceptions are signalling: IEEE_UNDERFLOW_FLAG IEEE_DENORMAL
Note: The following floating-point exceptions are signalling: IEEE_UNDERFLOW_FLAG IEEE_DENORMAL
Note: The following floating-point exceptions are signalling: IEEE_UNDERFLOW_FLAG IEEE_DENORMAL
Note: The following floating-point exceptions are signalling: IEEE_UNDERFLOW_FLAG IEEE_DENORMAL
Note: The following floating-point exceptions are signalling: IEEE_UNDERFLOW_FLAG IEEE_DENORMAL
Note: The following floating-point exceptions are signalling: IEEE_UNDERFLOW_FLAG IEEE_DENORMAL
Note: The following floating-point exceptions are signalling: IEEE_UNDERFLOW_FLAG IEEE_DENORMAL
Note: The following floating-point exceptions are signalling: IEEE_UNDERFLOW_FLAG IEEE_DENORMAL
Note: The following floating-point exceptions are signalling: IEEE_UNDERFLOW_FLAG IEEE_DENORMAL
Note: The following floating-point exceptions are signalling: IEEE_UNDERFLOW_FLAG IEEE_DENORMAL
Note: The following floating-point exceptions are signalling: IEEE_UNDERFLOW_FLAG IEEE_DENORMAL
Note: The following floating-point exceptions are signalling: IEEE_UNDERFLOW_FLAG IEEE_DENORMAL
Note: The following floating-point exceptions are signalling: IEEE_UNDERFLOW_FLAG IEEE_DENORMAL
Note: The following floating-point exceptions are signalling: IEEE_UNDERFLOW_FLAG IEEE_DENORMAL
Note: The following floating-point exceptions are signalling: IEEE_UNDERFLOW_FLAG IEEE_DENORMAL
Note: The following floating-point exceptions are signalling: IEEE_UNDERFLOW_FLAG IEEE_DENORMAL
Note: The following floating-point exceptions are signalling: IEEE_UNDERFLOW_FLAG IEEE_DENORMAL
Note: The following floating-point exceptions are signalling: IEEE_UNDERFLOW_FLAG IEEE_DENORMAL
Note: The following floating-point exceptions are signalling: IEEE_UNDERFLOW_FLAG IEEE_DENORMAL
Note: The following floating-point exceptions are signalling: IEEE_UNDERFLOW_FLAG IEEE_DENORMAL
[...]
Note: The following floating-point exceptions are signalling: IEEE_UNDERFLOW_FLAG IEEE_DENORMAL
Note: The following floating-point exceptions are signalling: IEEE_UNDERFLOW_FLAG IEEE_DENORMAL
Note: The following floating-point exceptions are signalling: IEEE_UNDERFLOW_FLAG IEEE_DENORMAL
Note: The following floating-point exceptions are signalling: IEEE_UNDERFLOW_FLAG IEEE_DENORMAL
Note: The following floating-point exceptions are signalling: IEEE_UNDERFLOW_FLAG IEEE_DENORMAL
Note: The following floating-point exceptions are signalling: IEEE_UNDERFLOW_FLAG IEEE_DENORMAL
Note: The following floating-point exceptions are signalling: IEEE_UNDERFLOW_FLAG IEEE_DENORMAL
Note: The following floating-point exceptions are signalling: IEEE_UNDERFLOW_FLAG IEEE_DENORMAL
Note: The following floating-point exceptions are signalling: IEEE_UNDERFLOW_FLAG IEEE_DENORMAL
Note: The following floating-point exceptions are signalling: IEEE_UNDERFLOW_FLAG IEEE_DENORMAL
Note: The following floating-point exceptions are signalling: IEEE_UNDERFLOW_FLAG IEEE_DENORMAL
Note: The following floating-point exceptions are signalling: IEEE_UNDERFLOW_FLAG IEEE_DENORMAL
Note: The following floating-point exceptions are signalling: IEEE_UNDERFLOW_FLAG IEEE_DENORMAL
Note: The following floating-point exceptions are signalling: IEEE_UNDERFLOW_FLAG IEEE_DENORMAL
Note: The following floating-point exceptions are signalling: IEEE_UNDERFLOW_FLAG IEEE_DENORMAL