     Program PWSCF v.6.1 (svn rev. 13369) starts on  2May2017 at 16: 3:30

     Current dimensions of program PWSCF are:
     Max number of different atomic species (ntypx) = 10
     Max number of k-points (npk) =  40000
     Max angular momentum in pseudopotentials (lmaxx) =  3

     Subspace diagonalization in iterative solution of the eigenvalue problem:
     one sub-group per band group will be used

     bravais-lattice index     =            0
     lattice parameter (alat)  =      28.4929  a.u.
     unit-cell volume          =   17221.4256 (a.u.)^3
     number of atoms/cell      =          144
     number of atomic types    =            2
     number of electrons       =      1152.00
     number of Kohn-Sham states=          691
     kinetic-energy cutoff     =      45.0000  Ry
     charge density cutoff     =     360.0000  Ry
     convergence threshold     =      1.4E-06
     mixing beta               =       0.3500
     number of iterations used =            8  plain     mixing
     Exchange-correlation      = SLA  PW   PBE  PBE ( 1  4  3  4 0 0)

     celldm(1)=  28.492913  celldm(2)=   0.000000  celldm(3)=   0.000000
     celldm(4)=   0.000000  celldm(5)=   0.000000  celldm(6)=   0.000000

     crystal axes: (cart. coord. in units of alat)
               a(1) = (   1.000000   0.000000   0.000000 )
               a(2) = (   0.000000   0.702408   0.266165 )
               a(3) = (   0.000000   0.000000   1.059911 )

     reciprocal axes: (cart. coord. in units 2 pi/alat)
               b(1) = (  1.000000  0.000000  0.000000 )
               b(2) = (  0.000000  1.423674  0.000000 )
               b(3) = (  0.000000 -0.357513  0.943476 )

     PseudoPot. # 1 for Si read from file:
     ./pseudo/Si.pbe-n-rrkjus_psl.1.0.0.UPF
     MD5 check sum: d928fff27e2cf23ab01de9cd48acd62a
     Pseudo is Ultrasoft + core correction, Zval =  4.0
     Generated using "atomic" code by A. Dal Corso  v.5.1
     Using radial grid of 1141 points,  6 beta functions with:
                l(1) =   0
                l(2) =   0
                l(3) =   1
                l(4) =   1
                l(5) =   2
                l(6) =   2
     Q(r) pseudized with 0 coefficients

     PseudoPot. # 2 for Zr read from file:
     ./pseudo/Zr_pbe_v1.uspp.F.UPF
     MD5 check sum: 5db81b1e868ab7776c4564c113de050b
     Pseudo is Ultrasoft + core correction, Zval = 12.0
     Generated by new atomic code, or converted to UPF format
     Using radial grid of  887 points,  6 beta functions with:
                l(1) =   0
                l(2) =   0
                l(3) =   1
                l(4) =   1
                l(5) =   2
                l(6) =   2
     Q(r) pseudized with  6 coefficients,  rinner =    1.200   1.200   1.200
                                                       1.200   1.200

     atomic species   valence    mass     pseudopotential
        Si             4.00    28.08550     Si( 1.00)
        Zr            12.00    91.22400     Zr( 1.00)

     Starting magnetic structure
     atomic species   magnetization
        Si           0.000
        Zr           0.417

     No symmetry found

                                    s                        frac. trans.

      isym =  1     identity

 cryst.   s( 1) = (     1          0          0      )
                  (     0          1          0      )
                  (     0          0          1      )

 cart.    s( 1) = (  1.0000000  0.0000000  0.0000000 )
                  (  0.0000000  1.0000000  0.0000000 )
                  (  0.0000000 -0.0000000  1.0000000 )

   Cartesian axes

     site n.     atom                  positions (alat units)
         1           Zr  tau(   1) = (   0.0600390   0.2026925   0.1823806  )
         2           Zr  tau(   2) = (   0.0583031   0.2024820   0.5294863  )
         3           Zr  tau(   3) = (   0.0645079   0.2047530   0.8867295  )
         4           Zr  tau(   4) = (   0.0674080   0.4354037   0.2688258  )
         5           Zr  tau(   5) = (   0.0622072   0.4343371   0.6257549  )
         6           Zr  tau(   6) = (   0.0610856   0.4302865   0.9769583  )
         7           Zr  tau(   7) = (   0.0610811   0.6658715   0.3514398  )
         8           Zr  tau(   8) = (   0.0600519   0.6687996   0.7138705  )
         9           Zr  tau(   9) = (   0.0677565   0.6680841   1.0631245  )
        10           Zr  tau(  10) = (   0.3113778   0.1952392   0.1767419  )
        11           Zr  tau(  11) = (   0.3087878   0.2037258   0.5329710  )
        12           Zr  tau(  12) = (   0.3102462   0.1953458   0.8847729  )
        13           Zr  tau(  13) = (   0.3126065   0.4390940   0.2649307  )
        14           Zr  tau(  14) = (   0.3133854   0.4380484   0.6168313  )
        15           Zr  tau(  15) = (   0.3116158   0.4291664   0.9726454  )
        16           Zr  tau(  16) = (   0.3111810   0.6638518   0.3535087  )
        17           Zr  tau(  17) = (   0.3173842   0.6678495   0.7071845  )
        18           Zr  tau(  18) = (   0.3149300   0.6701685   1.0581046  )
        19           Zr  tau(  19) = (   0.5600427   0.2043708   0.1804887  )
        20           Zr  tau(  20) = (   0.5587581   0.1969489   0.5337247  )
        21           Zr  tau(  21) = (   0.5621030   0.1973213   0.8895160  )
        22           Zr  tau(  22) = (   0.5596873   0.4387258   0.2678280  )
        23           Zr  tau(  23) = (   0.5674439   0.4345514   0.6223639  )
        24           Zr  tau(  24) = (   0.5618754   0.4293549   0.9756393  )
        25           Zr  tau(  25) = (   0.5615434   0.6706228   0.3511473  )
        26           Zr  tau(  26) = (   0.5670913   0.6662007   0.7077045  )
        27           Zr  tau(  27) = (   0.5673904   0.6680850   1.0645144  )
        28           Zr  tau(  28) = (   0.8116062   0.1949331   0.1779607  )
        29           Zr  tau(  29) = (   0.8134797   0.2046024   0.5290351  )
        30           Zr  tau(  30) = (   0.8097120   0.1974535   0.8814129  )
        31           Zr  tau(  31) = (   0.8151114   0.4367118   0.2710792  )
        32           Zr  tau(  32) = (   0.8175841   0.4329118   0.6211190  )
        33           Zr  tau(  33) = (   0.8173180   0.4324095   0.9725577  )
        34           Zr  tau(  34) = (   0.8140145   0.6635915   0.3542615  )
        35           Zr  tau(  35) = (   0.8090750   0.6653596   0.7065157  )
        36           Zr  tau(  36) = (   0.8084730   0.6710923   1.0603009  )
        37           Zr  tau(  37) = (   0.1918300   0.0309677   0.2630997  )
        38           Zr  tau(  38) = (   0.1831938   0.0340586   0.6137972  )
        39           Zr  tau(  39) = (   0.1858369   0.0289871   0.9696391  )
        40           Zr  tau(  40) = (   0.1906934   0.2645613   0.3545986  )
        41           Zr  tau(  41) = (   0.1882438   0.2726982   0.7082123  )
        42           Zr  tau(  42) = (   0.1842574   0.2715251   1.0564493  )
        43           Zr  tau(  43) = (   0.1920679   0.5034189   0.4434767  )
        44           Zr  tau(  44) = (   0.1916450   0.5021196   0.7976484  )
        45           Zr  tau(  45) = (   0.1853314   0.5001343   1.1432951  )
        46           Zr  tau(  46) = (   0.4350348   0.0309386   0.2600237  )
        47           Zr  tau(  47) = (   0.4353431   0.0382541   0.6145827  )
        48           Zr  tau(  48) = (   0.4377477   0.0321026   0.9751508  )
        49           Zr  tau(  49) = (   0.4343654   0.2690207   0.3565016  )
        50           Zr  tau(  50) = (   0.4427659   0.2683250   0.7049978  )
        51           Zr  tau(  51) = (   0.4333277   0.2707302   1.0569257  )
        52           Zr  tau(  52) = (   0.4401636   0.5041364   0.4452262  )
        53           Zr  tau(  53) = (   0.4417913   0.4992727   0.7952207  )
        54           Zr  tau(  54) = (   0.4385574   0.5028940   1.1424817  )
        55           Zr  tau(  55) = (   0.6828114   0.0361165   0.2648828  )
        56           Zr  tau(  56) = (   0.6878913   0.0392854   0.6169316  )
        57           Zr  tau(  57) = (   0.6915312   0.0308610   0.9716433  )
        58           Zr  tau(  58) = (   0.6846103   0.2724963   0.3514552  )
        59           Zr  tau(  59) = (   0.6831040   0.2697293   0.7081218  )
        60           Zr  tau(  60) = (   0.6869500   0.2715959   1.0549418  )
[...]
       130           Si  tau( 130) = (   0.5611161   0.3659318   0.4415336  )
       131           Si  tau( 131) = (   0.5624009   0.3650572   0.7940219  )
       132           Si  tau( 132) = (   0.5665274   0.3704686   1.1478667  )
       133           Si  tau( 133) = (   0.5616936   0.5986345   0.5253014  )
       134           Si  tau( 134) = (   0.5612337   0.6044914   0.8850421  )
       135           Si  tau( 135) = (   0.5672288   0.6022856   1.2351983  )
       136           Si  tau( 136) = (   0.8113615   0.1304177   0.3478920  )
       137           Si  tau( 137) = (   0.8166657   0.1371594   0.7053021  )
       138           Si  tau( 138) = (   0.8100480   0.1308615   1.0546895  )
       139           Si  tau( 139) = (   0.8128208   0.3728441   0.4337645  )
       140           Si  tau( 140) = (   0.8095092   0.3666561   0.7945047  )
       141           Si  tau( 141) = (   0.8127213   0.3651186   1.1474154  )
       142           Si  tau( 142) = (   0.8127679   0.6003724   0.5225253  )
       143           Si  tau( 143) = (   0.8149392   0.6072367   0.8830673  )
       144           Si  tau( 144) = (   0.8094511   0.6071092   1.2305604  )

   Crystallographic axes

     site n.     atom                  positions (cryst. coord.)
         1           Zr  tau(   1) = (  0.0600390  0.2885682  0.0996065  )
         2           Zr  tau(   2) = (  0.0583031  0.2882685  0.4271675  )
         3           Zr  tau(   3) = (  0.0645079  0.2915016  0.7634059  )
         4           Zr  tau(   4) = (  0.0674080  0.6198730  0.0979681  )
         5           Zr  tau(   5) = (  0.0622072  0.6183546  0.4351034  )
         6           Zr  tau(   6) = (  0.0610856  0.6125879  0.7679034  )
         7           Zr  tau(   7) = (  0.0610811  0.9479843  0.0935171  )
         8           Zr  tau(   8) = (  0.0600519  0.9521529  0.4344149  )
         9           Zr  tau(   9) = (  0.0677565  0.9511343  0.7641833  )
        10           Zr  tau(  10) = (  0.3113778  0.2779571  0.0969511  )
        11           Zr  tau(  11) = (  0.3087878  0.2900392  0.4300106  )
        12           Zr  tau(  12) = (  0.3102462  0.2781088  0.7649231  )
        13           Zr  tau(  13) = (  0.3126065  0.6251269  0.0929738  )
        14           Zr  tau(  14) = (  0.3133854  0.6236382  0.4253573  )
        15           Zr  tau(  15) = (  0.3116158  0.6109932  0.7642347  )
        16           Zr  tau(  16) = (  0.3111810  0.9451089  0.0961911  )
        17           Zr  tau(  17) = (  0.3173842  0.9508003  0.4284465  )
        18           Zr  tau(  18) = (  0.3149300  0.9541018  0.7587021  )
        19           Zr  tau(  19) = (  0.5600427  0.2909575  0.0972214  )
        20           Zr  tau(  20) = (  0.5587581  0.2803911  0.4331445  )
        21           Zr  tau(  21) = (  0.5621030  0.2809213  0.7686918  )
[...]
     1.0000   1.0000   1.0000   1.0000   1.0000   1.0000   1.0000   1.0000
     1.0000   1.0000   1.0000   1.0000   1.0000   1.0000   1.0000   1.0000
     1.0000   1.0000   1.0000   1.0000   1.0000   1.0000   1.0000   1.0000
     1.0000   1.0000   1.0000   1.0000   1.0000   1.0000   1.0000   1.0000
     1.0000   1.0000   1.0000   1.0000   1.0000   1.0000   1.0000   1.0000
     1.0000   1.0000   1.0000   1.0000   1.0000   1.0000   1.0000   1.0000
     1.0000   1.0000   1.0000   1.0000   1.0000   1.0000   1.0000   1.0000
     1.0000   1.0000   1.0000   1.0000   1.0000   1.0000   1.0000   1.0000
     1.0000   1.0000   1.0000   1.0000   1.0000   1.0000   1.0000   1.0000
     1.0000   1.0000   1.0000   1.0000   1.0000   1.0000   1.0000   1.0000
     1.0000   1.0000   1.0000   1.0000   1.0000   1.0000   1.0000   1.0000
     1.0000   1.0000   1.0000   1.0000   1.0000   1.0000   1.0000   1.0000
     1.0000   1.0000   1.0000   1.0000   1.0000   1.0000   1.0000   1.0000
     1.0000   1.0000   1.0000   1.0000   1.0000   1.0000   1.0000   1.0000
     1.0000   1.0000   1.0000   1.0000   1.0000   1.0000   1.0000   1.0000
     1.0000   1.0000   1.0000   1.0000   1.0000   1.0000   1.0000   1.0000
     1.0000   1.0000   1.0000   1.0000   1.0000   1.0000   1.0000   1.0000
     1.0000   1.0000   1.0000   1.0000   1.0000   1.0000   1.0000   1.0000
     1.0000   1.0000   1.0000   1.0000   1.0000   1.0000   1.0000   1.0000
     1.0000   1.0000   1.0000   1.0000   1.0000   1.0000   1.0000   1.0000
     1.0000   1.0000   1.0000   1.0000   1.0000   1.0000   1.0000   1.0000
     1.0000   1.0000   1.0000   1.0000   1.0000   1.0000   1.0000   1.0000
     1.0000   1.0000   1.0000   1.0000   1.0000   1.0000   1.0000   1.0000
     1.0000   1.0000   1.0000   1.0000   1.0000   1.0000   1.0000   1.0000
     1.0000   1.0000   1.0000   1.0000   1.0000   1.0000   1.0000   1.0000
     1.0000   1.0000   1.0000   1.0000   1.0000   1.0000   1.0000   1.0000
     1.0000   1.0000   1.0000   1.0000   1.0000   1.0000   1.0000   1.0000
     1.0000   1.0000   1.0000   1.0000   1.0000   1.0000   1.0000   1.0000
     1.0000   1.0000   1.0000   1.0000   1.0000   1.0000   1.0000   1.0000
     1.0000   1.0000   1.0000   1.0000   1.0000   1.0000   1.0000   1.0000
     1.0000   1.0000   1.0000   1.0000   1.0000   1.0000   1.0000   1.0000
     1.0000   1.0000   1.0000   1.0000   1.0000   1.0000   1.0000   1.0000
     1.0000   1.0000   1.0000   1.0000   1.0000   1.0000   1.0000   1.0000
     1.0000   1.0000   1.0000   1.0000   1.0000   1.0000   1.0000   1.0000
     1.0000   1.0000   1.0000   1.0000   1.0000   1.0000   1.0000   1.0000
     1.0000   1.0000   1.0000   1.0000   1.0000   1.0000   1.0000   1.0000
     1.0000   1.0000   1.0000   1.0000   1.0000   1.0000   1.0000   1.0000
     1.0000   1.0000   1.0000   1.0000   1.0000   1.0000   1.0000   1.0000
     1.0000   1.0000   1.0000   1.0000   1.0000   1.0000   1.0000   1.0000
     1.0000   1.0000   1.0000   1.0000   1.0000   1.0000   1.0000   1.0000
     1.0000   1.0000   1.0000   1.0000   1.0000   1.0000   1.0000   1.0000
     1.0000   1.0000   1.0000   1.0000   1.0000   1.0000   1.0000   1.0000
     1.0000   1.0000   1.0000   1.0000   1.0000   1.0000   1.0000   1.0000
     1.0000   1.0000   1.0000   1.0000   1.0000   1.0000   1.0000   1.0000
     1.0000   1.0000   1.0000   1.0000   1.0000   1.0000   1.0000   1.0000
     1.0000   1.0000   1.0000   1.0000   1.0000   1.0000   1.0000   1.0000
     1.0000   1.0000   1.0000   1.0000   1.0000   1.0000   1.0000   1.0000
[...]
     0.2480   0.1042   0.0719   0.0367   0.0314   0.0264   0.0218   0.0160
     0.0119   0.0063   0.0041   0.0038   0.0020   0.0015   0.0011   0.0009
     0.0007   0.0002   0.0002   0.0001   0.0000   0.0000   0.0000   0.0000
     0.0000   0.0000   0.0000   0.0000   0.0000   0.0000   0.0000   0.0000
     0.0000   0.0000   0.0000   0.0000   0.0000   0.0000   0.0000   0.0000
     0.0000   0.0000   0.0000   0.0000   0.0000   0.0000   0.0000   0.0000
     0.0000   0.0000   0.0000   0.0000   0.0000   0.0000   0.0000   0.0000
     0.0000   0.0000   0.0000   0.0000   0.0000   0.0000   0.0000   0.0000
     0.0000   0.0000   0.0000   0.0000   0.0000   0.0000   0.0000   0.0000
     0.0000   0.0000   0.0000   0.0000   0.0000   0.0000   0.0000   0.0000
     0.0000   0.0000   0.0000   0.0000   0.0000   0.0000   0.0000   0.0000
     0.0000   0.0000   0.0000   0.0000   0.0000   0.0000   0.0000   0.0000
     0.0000   0.0000   0.0000   0.0000   0.0000   0.0000   0.0000   0.0000
     0.0000   0.0000   0.0000   0.0000   0.0000   0.0000   0.0000   0.0000
     0.0000   0.0000   0.0000

[...]

 ------ SPIN DOWN ----------

[...]

          k = 0.4000 0.8548-0.3774 ( 87790 PWs)   bands (ev):

   -35.2065 -35.2016 -35.1900 -35.1870 -35.1862 -35.1785 -35.1774 -35.1763
   -35.1754 -35.1729 -35.1701 -35.1650 -35.1622 -35.1604 -35.1554 -35.1530
   -35.1504 -35.1486 -35.1475 -35.1439 -35.1382 -35.1343 -35.1336 -35.1322
   -35.1311 -35.1296 -35.1288 -35.1272 -35.1243 -35.1237 -35.1224 -35.1181
   -35.1171 -35.1160 -35.1153 -35.1135 -35.1129 -35.1127 -35.1079 -35.1035
   -35.1024 -35.1018 -35.1004 -35.0972 -35.0964 -35.0955 -35.0945 -35.0938
   -35.0934 -35.0908 -35.0855 -35.0823 -35.0795 -35.0782 -35.0769 -35.0751
   -35.0720 -35.0689 -35.0678 -35.0669 -35.0665 -35.0603 -35.0584 -35.0550
   -35.0535 -35.0513 -35.0363 -35.0330 -35.0222 -35.0217 -35.0175 -35.0106
   -13.4507 -13.4453 -13.4423 -13.4387 -13.4365 -13.4328 -13.4307 -13.4275
   -13.4257 -13.4237 -13.4225 -13.4201 -13.4182 -13.4160 -13.4151 -13.4139
   -13.4102 -13.4086 -13.4062 -13.4054 -13.4026 -13.4013 -13.4000 -13.3964
   -13.3934 -13.3918 -13.3911 -13.3889 -13.3875 -13.3861 -13.3845 -13.3836
   -13.3820 -13.3809 -13.3799 -13.3771 -13.3766 -13.3741 -13.3723 -13.3709
   -13.3682 -13.3663 -13.3642 -13.3632 -13.3598 -13.3571 -13.3550 -13.3522
   -13.3491 -13.3475 -13.3455 -13.3421 -13.3406 -13.3375 -13.3338 -13.3227
   -13.3171 -13.3157 -13.3102 -13.3087 -13.3071 -13.3058 -13.3041 -13.3020
   -13.3003 -13.2979 -13.2958 -13.2936 -13.2933 -13.2908 -13.2883 -13.2863
   -13.2841 -13.2832 -13.2817 -13.2791 -13.2767 -13.2756 -13.2714 -13.2690
   -13.2665 -13.2623 -13.2584 -13.2567 -13.2543 -13.2535 -13.2510 -13.2493
   -13.2482 -13.2457 -13.2429 -13.2414 -13.2408 -13.2400 -13.2382 -13.2348
   -13.2331 -13.2309 -13.2282 -13.2265 -13.2257 -13.2206 -13.2199 -13.2172
   -13.2156 -13.2128 -13.2124 -13.2111 -13.2080 -13.2051 -13.2018 -13.1997
   -13.1987 -13.1960 -13.1950 -13.1931 -13.1902 -13.1889 -13.1862 -13.1859
   -13.1826 -13.1810 -13.1794 -13.1765 -13.1758 -13.1745 -13.1724 -13.1701
   -13.1685 -13.1668 -13.1654 -13.1639 -13.1621 -13.1585 -13.1581 -13.1559
   -13.1544 -13.1521 -13.1507 -13.1485 -13.1472 -13.1462 -13.1442 -13.1424
   -13.1410 -13.1384 -13.1371 -13.1355 -13.1345 -13.1324 -13.1304 -13.1289
   -13.1261 -13.1244 -13.1225 -13.1213 -13.1199 -13.1189 -13.1171 -13.1151
   -13.1134 -13.1127 -13.1104 -13.1084 -13.1071 -13.1055 -13.1041 -13.1031
   -13.1010 -13.1004 -13.0995 -13.0976 -13.0967 -13.0943 -13.0930 -13.0908
   -13.0885 -13.0874 -13.0853 -13.0840 -13.0825 -13.0809 -13.0785 -13.0748
   -13.0732 -13.0709 -13.0691 -13.0675 -13.0642 -13.0624 -13.0587 -13.0577
   -13.0551 -13.0539 -13.0523 -13.0505 -13.0485 -13.0470 -13.0434 -13.0425
   -13.0400 -13.0374 -13.0344 -13.0305 -13.0266 -13.0251 -13.0200 -13.0189
   -13.0162 -13.0134 -13.0111 -13.0062 -12.9950 -12.9931 -12.9823 -12.9662
     2.5257   2.5891   2.6510   2.6906   2.7287   2.8181   2.8586   2.8828
     2.9891   3.0262   3.0845   3.1357   3.4311   3.4405   3.4627   3.5542
     3.5831   3.6434   3.6915   3.7298   3.8022   3.8860   3.9629   4.0150
     4.0587   4.0727   4.1405   4.2147   4.2441   4.2702   4.2764   4.3594
     4.4073   4.4932   4.5132   4.5528   5.6422   5.6705   5.7117   5.7183
     5.7292   5.7594   5.8285   5.9113   5.9589   6.0777   6.0895   6.1057
     6.1185   6.1338   6.1835   6.2439   6.3286   6.3613   6.4322   6.5059
     6.5401   6.6041   6.6647   6.7402   6.7895   6.8292   6.9187   6.9476
     7.0065   7.0444   7.3838   7.4745   7.5089   7.6054   7.6531   7.8051
     8.1615   8.2061   8.2593   8.2763   8.3645   8.4388   8.4619   8.4760
     8.5238   8.6665   8.7070   8.7287   8.7475   8.9444   9.0424   9.0854
     9.1367   9.1903   9.2105   9.2524   9.2652   9.2740   9.2917   9.3021
     9.3200   9.3384   9.3537   9.3781   9.3978   9.4342   9.4557   9.4667
     9.5047   9.5875   9.6159   9.6953   9.7061   9.7328   9.7519   9.7633
     9.7685   9.7889   9.7952   9.8231   9.8380   9.8691   9.8889   9.8943
     9.9165   9.9360  10.0025  10.0129  10.0240  10.0366  10.0551  10.0714
    10.0902  10.0939  10.1153  10.1289  10.1374  10.1496  10.1632  10.1664
    10.1864  10.2019  10.2128  10.2292  10.2455  10.2560  10.2694  10.2858
    10.2935  10.3155  10.3255  10.3395  10.3531  10.3697  10.3751  10.3951
    10.4247  10.4310  10.4474  10.4590  10.5461  10.5793  10.5990  10.6191
    10.6308  10.6485  10.6741  10.6869  10.7354  10.7420  10.7593  10.7696
    10.7865  10.7943  10.8088  10.8189  10.8309  10.8389  10.8544  10.8752
    10.8985  10.9109  10.9261  10.9640  10.9845  10.9948  11.0166  11.0301
    11.0449  11.0736  11.1002  11.1179  11.1438  11.1602  11.2041  11.2354
[...]
    13.5721  13.6334  13.6694  13.7079  13.7437  13.7475  13.7678  13.7988
    13.8210  13.8504  13.8749  13.9129  13.9716  14.0069  14.0335  14.0521
    14.0789  14.1143  14.1260  14.1511  14.1837  14.2752  14.3034  14.3792
    14.4250  14.4448  14.4577  14.4811  14.4977  14.5315  14.5463  14.5740
    14.5922  14.6168  14.6242  14.6752  14.6897  14.7039  14.7423  14.7521
    14.7818  14.7908  14.8040  14.8341  14.8404  14.8620  14.8698  14.9024
    14.9132  14.9242  14.9677  14.9816  15.0514  15.0728  15.1008  15.1315
    15.1568  15.1754  15.2179  15.2431  15.2702  15.2995  15.3151  15.3488
    15.3769  15.3963  15.4295  15.4646  15.4737  15.4904  15.5139  15.5209
    15.5448  15.5532  15.5608  15.5914  15.6031  15.6123  15.6363  15.6426
    15.6632  15.6835  15.6912  15.7006  15.7252  15.7387  15.7609  15.7663
    15.7843  15.7977  15.8009  15.8291  15.8325  15.8505  15.8632  15.8699
    15.8935  15.9053  15.9109  15.9410  15.9494  15.9642  15.9750  15.9932
    16.0011  16.0345  16.0486  16.0821  16.0979  16.1127  16.1202  16.1340
    16.1530  16.1645  16.1709

     occupation numbers
     1.0000   1.0000   1.0000   1.0000   1.0000   1.0000   1.0000   1.0000
     1.0000   1.0000   1.0000   1.0000   1.0000   1.0000   1.0000   1.0000
     1.0000   1.0000   1.0000   1.0000   1.0000   1.0000   1.0000   1.0000
     1.0000   1.0000   1.0000   1.0000   1.0000   1.0000   1.0000   1.0000
     1.0000   1.0000   1.0000   1.0000   1.0000   1.0000   1.0000   1.0000
     1.0000   1.0000   1.0000   1.0000   1.0000   1.0000   1.0000   1.0000
     1.0000   1.0000   1.0000   1.0000   1.0000   1.0000   1.0000   1.0000
     1.0000   1.0000   1.0000   1.0000   1.0000   1.0000   1.0000   1.0000
     1.0000   1.0000   1.0000   1.0000   1.0000   1.0000   1.0000   1.0000
     1.0000   1.0000   1.0000   1.0000   1.0000   1.0000   1.0000   1.0000
     1.0000   1.0000   1.0000   1.0000   1.0000   1.0000   1.0000   1.0000
     1.0000   1.0000   1.0000   1.0000   1.0000   1.0000   1.0000   1.0000
     1.0000   1.0000   1.0000   1.0000   1.0000   1.0000   1.0000   1.0000
     1.0000   1.0000   1.0000   1.0000   1.0000   1.0000   1.0000   1.0000
     1.0000   1.0000   1.0000   1.0000   1.0000   1.0000   1.0000   1.0000
     1.0000   1.0000   1.0000   1.0000   1.0000   1.0000   1.0000   1.0000
     1.0000   1.0000   1.0000   1.0000   1.0000   1.0000   1.0000   1.0000
     1.0000   1.0000   1.0000   1.0000   1.0000   1.0000   1.0000   1.0000
     1.0000   1.0000   1.0000   1.0000   1.0000   1.0000   1.0000   1.0000
     1.0000   1.0000   1.0000   1.0000   1.0000   1.0000   1.0000   1.0000
     1.0000   1.0000   1.0000   1.0000   1.0000   1.0000   1.0000   1.0000
     1.0000   1.0000   1.0000   1.0000   1.0000   1.0000   1.0000   1.0000
     1.0000   1.0000   1.0000   1.0000   1.0000   1.0000   1.0000   1.0000
     1.0000   1.0000   1.0000   1.0000   1.0000   1.0000   1.0000   1.0000
     1.0000   1.0000   1.0000   1.0000   1.0000   1.0000   1.0000   1.0000
     1.0000   1.0000   1.0000   1.0000   1.0000   1.0000   1.0000   1.0000
     1.0000   1.0000   1.0000   1.0000   1.0000   1.0000   1.0000   1.0000
     1.0000   1.0000   1.0000   1.0000   1.0000   1.0000   1.0000   1.0000
     1.0000   1.0000   1.0000   1.0000   1.0000   1.0000   1.0000   1.0000
     1.0000   1.0000   1.0000   1.0000   1.0000   1.0000   1.0000   1.0000
     1.0000   1.0000   1.0000   1.0000   1.0000   1.0000   1.0000   1.0000
     1.0000   1.0000   1.0000   1.0000   1.0000   1.0000   1.0000   1.0000
     1.0000   1.0000   1.0000   1.0000   1.0000   1.0000   1.0000   1.0000
     1.0000   1.0000   1.0000   1.0000   1.0000   1.0000   1.0000   1.0000
     1.0000   1.0000   1.0000   1.0000   1.0000   1.0000   1.0000   1.0000
     1.0000   1.0000   1.0000   1.0000   1.0000   1.0000   1.0000   1.0000
     1.0000   1.0000   1.0000   1.0000   1.0000   1.0000   1.0000   1.0000
     1.0000   1.0000   1.0000   1.0000   1.0000   1.0000   1.0000   1.0000
     1.0000   1.0000   1.0000   1.0000   1.0000   1.0000   1.0000   1.0000
     1.0000   1.0000   1.0000   1.0000   1.0000   1.0000   1.0000   1.0000
     1.0000   1.0000   1.0000   1.0000   1.0000   1.0000   1.0000   1.0000
     1.0000   1.0000   1.0000   1.0000   1.0000   1.0000   1.0000   1.0000
     1.0000   1.0000   1.0000   1.0000   1.0000   1.0000   1.0000   1.0000
     1.0000   1.0000   1.0000   1.0000   1.0000   1.0000   1.0000   1.0000
     1.0000   1.0000   1.0000   1.0000   1.0000   1.0000   1.0000   1.0000
     1.0000   1.0000   1.0000   1.0000   1.0000   1.0000   1.0000   1.0000
     1.0000   1.0000   1.0000   1.0000   1.0000   1.0000   1.0000   1.0000
     1.0000   1.0000   1.0000   1.0000   1.0000   1.0000   1.0000   1.0000
     1.0000   1.0000   1.0000   1.0000   1.0000   1.0000   1.0000   1.0000
     1.0000   1.0000   1.0000   1.0000   1.0000   1.0000   1.0000   1.0000
     1.0000   1.0000   1.0000   1.0000   1.0000   1.0000   1.0000   1.0000
     1.0000   1.0000   1.0000   1.0000   1.0000   1.0000   1.0000   1.0000
     1.0000   1.0000   1.0000   1.0000   1.0000   1.0000   1.0000   1.0000
     1.0000   1.0000   1.0000   1.0000   1.0000   1.0000   1.0000   1.0000
     1.0000   1.0000   1.0000   1.0000   1.0000   1.0000   1.0000   1.0000
     1.0000   1.0000   1.0000   1.0000   1.0000   1.0000   1.0000   1.0000
     1.0000   1.0000   1.0000   1.0000   1.0000   1.0000   1.0000   1.0000
     1.0000   1.0000   1.0000   1.0000   1.0000   1.0000   1.0000   1.0000
     1.0000   1.0000   1.0000   1.0000   1.0000   1.0000   1.0000   1.0000
     1.0000   1.0000   1.0000   1.0000   1.0000   1.0000   1.0000   1.0000
[...]
     0.4613   0.3107   0.2363   0.1703   0.1217   0.1172   0.0952   0.0681
     0.0527   0.0368   0.0269   0.0160   0.0066   0.0038   0.0024   0.0017
     0.0011   0.0005   0.0004   0.0003   0.0001   0.0000   0.0000   0.0000
     0.0000   0.0000   0.0000   0.0000   0.0000   0.0000   0.0000   0.0000
     0.0000   0.0000   0.0000   0.0000   0.0000   0.0000   0.0000   0.0000
     0.0000   0.0000   0.0000   0.0000   0.0000   0.0000   0.0000   0.0000
     0.0000   0.0000   0.0000   0.0000   0.0000   0.0000   0.0000   0.0000
     0.0000   0.0000   0.0000   0.0000   0.0000   0.0000   0.0000   0.0000
     0.0000   0.0000   0.0000   0.0000   0.0000   0.0000   0.0000   0.0000
     0.0000   0.0000   0.0000   0.0000   0.0000   0.0000   0.0000   0.0000
     0.0000   0.0000   0.0000   0.0000   0.0000   0.0000   0.0000   0.0000
     0.0000   0.0000   0.0000   0.0000   0.0000   0.0000   0.0000   0.0000
     0.0000   0.0000   0.0000   0.0000   0.0000   0.0000   0.0000   0.0000
     0.0000   0.0000   0.0000   0.0000   0.0000   0.0000   0.0000   0.0000
     0.0000   0.0000   0.0000

     the Fermi energy is    13.5955 ev

!    total energy              =   -7970.88592308 Ry
     Harris-Foulkes estimate   =   -7970.88592355 Ry
     estimated scf accuracy    <       0.00000111 Ry

     The total energy is the sum of the following terms:

     one-electron contribution =   -1196.00036112 Ry
     hartree contribution      =    1118.91382140 Ry
     xc contribution           =   -1734.72262941 Ry
     ewald contribution        =   -6159.09779021 Ry
     smearing contrib. (-TS)   =       0.02103625 Ry

     total magnetization       =     0.01 Bohr mag/cell
     absolute magnetization    =     0.03 Bohr mag/cell

     convergence has been achieved in  40 iterations

     Writing output data file aiida_.save

     General routines

     Parallel routines

   This run was terminated on:  19:49:22   2May2017

   JOB DONE.