     Program PWSCF v.6.4.1 starts on  8Nov2019 at  9:47:32

     R & G space division:  proc/nbgrp/npool/nimage =      16
     Reading input from pw.in
     Message from routine read_cards :
     DEPRECATED: no units specified in CELL_PARAMETERS card
Warning: card 1 1 1  0 0 0 ignored

     Current dimensions of program PWSCF are:
     Max number of different atomic species (ntypx) = 10
     Max number of k-points (npk) =  40000
     Max angular momentum in pseudopotentials (lmaxx) =  3
     Message from routine cell_base_init:
     DEPRECATED: use true lattice parameter, not A to a.u. conversion factor

     gamma-point specific algorithms are used

     Message from routine setup:
     using ibrav=0 with symmetry is DISCOURAGED, use correct ibrav instead

     bravais-lattice index     =            0
     lattice parameter (alat)  =       1.0000  a.u.
     unit-cell volume          =   69174.1805 (a.u.)^3
     number of atoms/cell      =          512
     number of atomic types    =            2
     number of electrons       =      2058.00
     number of Kohn-Sham states=         1235
     kinetic-energy cutoff     =      40.0000  Ry
     charge density cutoff     =     600.0000  Ry
     convergence threshold     =      1.0E-10
     mixing beta               =       0.7000
     number of iterations used =            8  plain     mixing
     Exchange-correlation=  SLA  PZ   NOGX NOGC
                           (   1   1   0   0   0   0   0)

     celldm(1)=   1.000000  celldm(2)=   0.000000  celldm(3)=   0.000000
     celldm(4)=   0.000000  celldm(5)=   0.000000  celldm(6)=   0.000000

     crystal axes: (cart. coord. in units of alat)
               a(1) = (  41.050143   0.000000   0.000000 )
               a(2) = (   0.000000  41.050143   0.000000 )
               a(3) = (   0.000000   0.000000  41.050143 )

     reciprocal axes: (cart. coord. in units 2 pi/alat)
               b(1) = (  0.024360  0.000000  0.000000 )
               b(2) = (  0.000000  0.024360  0.000000 )
               b(3) = (  0.000000  0.000000  0.024360 )

     PseudoPot. # 1 for Si read from file:
     ./si_lda_v1.uspp.F.UPF
     MD5 check sum: b5ade7b37ee992b02096e360e546dc2d
     Pseudo is Ultrasoft + core correction, Zval =  4.0
     Generated by new atomic code, or converted to UPF format
     Using radial grid of  899 points,  6 beta functions with:
                l(1) =   0
                l(2) =   0
                l(3) =   1
                l(4) =   1
                l(5) =   2
                l(6) =   2
     Q(r) pseudized with  8 coefficients,  rinner =    0.900   0.900   0.900
                                                       0.900   0.900

     PseudoPot. # 2 for Ge read from file:
     ./ge_lda_v1.4.uspp.F.UPF
     MD5 check sum: bf9d52b59cc8a669818bb2b52e0c2ba0
     Pseudo is Ultrasoft + core correction, Zval = 14.0
     Generated by new atomic code, or converted to UPF format
     Using radial grid of  873 points,  6 beta functions with:
                l(1) =   0
                l(2) =   0
                l(3) =   1
                l(4) =   1
                l(5) =   2
                l(6) =   2
     Q(r) pseudized with  8 coefficients,  rinner =    1.400   1.400   1.400
                                                       1.400   1.400

     atomic species   valence    mass     pseudopotential
        Si             4.00    28.08550     Si( 1.00)
        Ge            14.00    72.61000     Ge( 1.00)

     24 Sym. Ops. (no inversion) found

   Cartesian axes

     site n.     atom                  positions (alat units)
         1           Si  tau(   1) = (  20.5250715  20.5250715  20.5250715  )
         2           Si  tau(   2) = (  20.5250715  20.5250715  30.7876073  )
         3           Si  tau(   3) = (  20.5250715  20.5250715   0.0000000  )
         4           Si  tau(   4) = (  20.5250715  20.5250715  10.2625357  )
         5           Si  tau(   5) = (  20.5250715  30.7876073  20.5250715  )
         6           Si  tau(   6) = (  20.5250715  30.7876073  30.7876073  )
         7           Si  tau(   7) = (  20.5250715  30.7876073   0.0000000  )
         8           Si  tau(   8) = (  20.5250715  30.7876073  10.2625357  )
         9           Si  tau(   9) = (  20.5250715   0.0000000  20.5250715  )
        10           Si  tau(  10) = (  20.5250715   0.0000000  30.7876073  )
        11           Si  tau(  11) = (  20.5250715   0.0000000   0.0000000  )
        12           Si  tau(  12) = (  20.5250715   0.0000000  10.2625357  )
        13           Si  tau(  13) = (  20.5250715  10.2625357  20.5250715  )
        14           Si  tau(  14) = (  20.5250715  10.2625357  30.7876073  )
        15           Si  tau(  15) = (  20.5250715  10.2625357   0.0000000  )
        16           Si  tau(  16) = (  20.5250715  10.2625357  10.2625357  )
        17           Si  tau(  17) = (  30.7876073  20.5250715  20.5250715  )
        18           Si  tau(  18) = (  30.7876073  20.5250715  30.7876073  )
        19           Si  tau(  19) = (  30.7876073  20.5250715   0.0000000  )
        20           Si  tau(  20) = (  30.7876073  20.5250715  10.2625357  )
        21           Si  tau(  21) = (  30.7876073  30.7876073  20.5250715  )
        22           Si  tau(  22) = (  30.7876073  30.7876073  30.7876073  )
        23           Si  tau(  23) = (  30.7876073  30.7876073   0.0000000  )
        24           Si  tau(  24) = (  30.7876073  30.7876073  10.2625357  )
        25           Si  tau(  25) = (  30.7876073   0.0000000  20.5250715  )
        26           Si  tau(  26) = (  30.7876073   0.0000000  30.7876073  )
        27           Si  tau(  27) = (  30.7876073   0.0000000   0.0000000  )
        28           Si  tau(  28) = (  30.7876073   0.0000000  10.2625357  )
        29           Si  tau(  29) = (  30.7876073  10.2625357  20.5250715  )
        30           Si  tau(  30) = (  30.7876073  10.2625357  30.7876073  )
        31           Si  tau(  31) = (  30.7876073  10.2625357   0.0000000  )
        32           Si  tau(  32) = (  30.7876073  10.2625357  10.2625357  )
        33           Si  tau(  33) = (   0.0000000  20.5250715  20.5250715  )
        34           Si  tau(  34) = (   0.0000000  20.5250715  30.7876073  )
        35           Si  tau(  35) = (   0.0000000  20.5250715   0.0000000  )
        36           Si  tau(  36) = (   0.0000000  20.5250715  10.2625357  )
        37           Si  tau(  37) = (   0.0000000  30.7876073  20.5250715  )
        38           Si  tau(  38) = (   0.0000000  30.7876073  30.7876073  )
        39           Si  tau(  39) = (   0.0000000  30.7876073   0.0000000  )
        40           Si  tau(  40) = (   0.0000000  30.7876073  10.2625357  )
        41           Si  tau(  41) = (   0.0000000   0.0000000  20.5250715  )
        42           Si  tau(  42) = (   0.0000000   0.0000000  30.7876073  )
        43           Si  tau(  43) = (   0.0000000   0.0000000  10.2625357  )
        44           Si  tau(  44) = (   0.0000000  10.2625357  20.5250715  )
        45           Si  tau(  45) = (   0.0000000  10.2625357  30.7876073  )
        46           Si  tau(  46) = (   0.0000000  10.2625357   0.0000000  )
        47           Si  tau(  47) = (   0.0000000  10.2625357  10.2625357  )
        48           Si  tau(  48) = (  10.2625357  20.5250715  20.5250715  )
        49           Si  tau(  49) = (  10.2625357  20.5250715  30.7876073  )
        50           Si  tau(  50) = (  10.2625357  20.5250715   0.0000000  )
        51           Si  tau(  51) = (  10.2625357  20.5250715  10.2625357  )
        52           Si  tau(  52) = (  10.2625357  30.7876073  20.5250715  )
        53           Si  tau(  53) = (  10.2625357  30.7876073  30.7876073  )
        54           Si  tau(  54) = (  10.2625357  30.7876073   0.0000000  )
        55           Si  tau(  55) = (  10.2625357  30.7876073  10.2625357  )
        56           Si  tau(  56) = (  10.2625357   0.0000000  20.5250715  )
        57           Si  tau(  57) = (  10.2625357   0.0000000  30.7876073  )
        58           Si  tau(  58) = (  10.2625357   0.0000000   0.0000000  )
        59           Si  tau(  59) = (  10.2625357   0.0000000  10.2625357  )
        60           Si  tau(  60) = (  10.2625357  10.2625357  20.5250715  )
[...]
       498           Si  tau( 498) = (  12.8281697  23.0907054   2.5656339  )
       499           Si  tau( 499) = (  12.8281697  23.0907054  12.8281697  )
       500           Si  tau( 500) = (  12.8281697  33.3532412  23.0907054  )
       501           Si  tau( 501) = (  12.8281697  33.3532412  33.3532412  )
       502           Si  tau( 502) = (  12.8281697  33.3532412   2.5656339  )
       503           Si  tau( 503) = (  12.8281697  33.3532412  12.8281697  )
       504           Si  tau( 504) = (  12.8281697   2.5656339  23.0907054  )
       505           Si  tau( 505) = (  12.8281697   2.5656339  33.3532412  )
       506           Si  tau( 506) = (  12.8281697   2.5656339   2.5656339  )
       507           Si  tau( 507) = (  12.8281697   2.5656339  12.8281697  )
       508           Si  tau( 508) = (  12.8281697  12.8281697  23.0907054  )
       509           Si  tau( 509) = (  12.8281697  12.8281697  33.3532412  )
       510           Si  tau( 510) = (  12.8281697  12.8281697   2.5656339  )
       511           Si  tau( 511) = (  12.8281697  12.8281697  12.8281697  )
       512           Ge  tau( 512) = (   0.0000000   0.0000000   0.0000000  )

     number of k points=     1  Gaussian smearing, width (Ry)=  0.0010
                       cart. coord. in units 2pi/alat
        k(    1) = (   0.0000000   0.0000000   0.0000000), wk =   2.0000000

     Initial potential from superposition of free atoms

     starting charge 2057.69115, renormalised to 2058.00000

     Self-consistent Calculation

     iteration #  1     ecut=    40.00 Ry     beta= 0.70

     Threshold (ethr) on eigenvalues was too large:
     Diagonalizing with lowered threshold

     total energy              =   -5130.19855966 Ry
     Harris-Foulkes estimate   =   -5134.62794217 Ry
     estimated scf accuracy    <      12.77939751 Ry

     Band energy sum           =      68.27124815 Ry

[...]

     total energy              =   -5134.07184988 Ry
     Harris-Foulkes estimate   =   -5134.07184988 Ry
     estimated scf accuracy    <          1.8E-10 Ry

[...]

     iteration # 19     ecut=    40.00 Ry     beta= 0.70

     End of self-consistent calculation

          k = 0.0000 0.0000 0.0000 (147954 PWs)   bands (ev):

   -18.2591 -18.2591 -18.2591 -18.2289 -18.2289  -5.9530  -5.7060  -5.6752
    -5.6752  -5.6752  -5.6747  -5.6747  -5.4576  -5.4086  -5.4086  -5.4085
    -5.4075  -5.4075  -5.4075  -5.4073  -5.4073  -5.4071  -5.4071  -5.4071
    -5.1776  -5.1485  -5.1485  -5.1485  -5.1481  -5.1481  -5.1481  -5.1479
    -4.8951  -4.8666  -4.8666  -4.8666  -4.8663  -4.8663  -4.7070  -4.6204
    -4.6204  -4.6204  -4.6192  -4.6192  -4.6188  -4.6188  -4.6188  -4.6186
    -4.6186  -4.6186  -4.6184  -4.6184  -4.6184  -4.6182  -4.6182  -4.6182
    -4.6181  -4.6181  -4.6179  -4.6179  -4.6179  -4.6178  -4.4475  -4.3925
    -4.3925  -4.3925  -4.3913  -4.3913  -4.3913  -4.3912  -4.3907  -4.3907
[...]
 | | | | |- sirius::K_point::generate_atomic_wave_functions              1     104.10 ms       0.08      83.00     104.10 ms     104.10 ms     104.10 ms
 | | | |- sirius::Hamiltonian_k::apply_h_s                               1        1.57 s       1.15      56.96        1.57 s        1.57 s        1.57 s
 | | | | |- sirius::Local_operator::apply_h                              1     846.58 ms       0.62      53.78     846.58 ms     846.58 ms     846.58 ms
 | | | | | |- sddk::matrix_storage::remap_forward                        1     234.65 ms       0.17      27.72     234.65 ms     234.65 ms     234.65 ms
 | | | | | | |- sddk::matrix_storage::set_num_extra                      1     134.90 ms       0.10      57.49     134.90 ms     134.90 ms     134.90 ms
 | | | | | | | |- sddk::matrix_storage::set_num_extra|alloc              1     134.90 ms       0.10     100.00     134.90 ms     134.90 ms     134.90 ms
 | | | | | |- sddk::matrix_storage::set_num_extra                        1     146.33 ms       0.11      17.28     146.33 ms     146.33 ms     146.33 ms
 | | | | | | |- sddk::matrix_storage::set_num_extra|alloc                1     146.32 ms       0.11     100.00     146.32 ms     146.32 ms     146.32 ms
 | | | | | |- sddk::matrix_storage::remap_backward                       1     111.19 ms       0.08      13.13     111.19 ms     111.19 ms     111.19 ms
 | | | | |- sirius::Beta_projectors_base::generate                       2       5.59 ms       0.00       0.36       2.80 ms       2.24 ms       3.35 ms
 | | | | |- sirius::Beta_projectors_base::inner                          2     395.74 ms       0.29      25.14     197.87 ms     180.26 ms     215.48 ms
 | | | | | |- sirius::Beta_projectors_base::inner|comm                   2      93.12 ms       0.07      23.53      46.56 ms      37.47 ms      55.65 ms
 | | | | |- sirius::Non_local_operator::apply                            4     326.07 ms       0.24      20.72      81.56 ms      81.13 ms      81.82 ms
 | | | |- sirius::Band::set_subspace_mtrx                                2     110.38 ms       0.08       3.99      55.19 ms      44.76 ms      65.62 ms
 | | | | |- sddk::inner                                                  2     110.26 ms       0.08      99.89      55.13 ms      44.71 ms      65.56 ms
 | | | | | |- sddk::inner|local                                         18     284.90 us       0.00       0.26      12.87 us       6.65 us      48.52 us
 | | | |- Eigensolver_elpa|to_std                                        1     181.11 ms       0.13       6.55     181.11 ms     181.11 ms     181.11 ms
 | | | |- Eigensolver_elpa|solve_std                                     1     237.44 ms       0.17       8.59     237.44 ms     237.44 ms     237.44 ms
 | | | | |- Eigensolver_elpa|solve_std|setup                             1     667.88 us       0.00       0.28     667.88 us     667.88 us     667.88 us
 | | | |- Eigensolver_elpa|bt                                            1       7.59 ms       0.01       0.27       7.59 ms       7.59 ms       7.59 ms
 | | | |- sddk::transform                                                1      95.85 ms       0.07       3.47      95.85 ms      95.85 ms      95.85 ms
 | | | | |- sddk::transform|init                                         1      38.18 us       0.00       0.04      38.18 us      38.18 us      38.18 us
 | | | | |- sddk::transform|local                                        2      46.42 us       0.00       0.05      23.21 us      11.04 us      35.38 us
 | | |- sirius::Beta_projectors_base::dismiss                            1     621.00 ns       0.00       0.00     621.00 ns     621.00 ns     621.00 ns
 |
 |- qe|electrons                                                         1      107.65 s      78.54      78.54      107.65 s      107.65 s      107.65 s
 | |- sirius::Hamiltonian0                                              20        1.34 s       0.98       1.24      70.91 ms      26.25 ms      71.08 ms
 | | |- sirius::Local_operator                                          20        1.29 s       0.94      95.92      68.11 ms      24.95 ms      68.18 ms
 | | | |- sirius::Smooth_periodic_function                              20     106.28 ms       0.08       8.27       5.03 ms       4.88 ms      10.77 ms
 | | | |- sirius::Smooth_periodic_function::fft_transform               20     597.13 ms       0.44      46.45      31.49 ms      13.32 ms      31.57 ms
 | | |- sirius::Non_local_operator                                      40       3.08 ms       0.00       0.23      77.54 us      65.59 us      83.34 us
 | | |- sirius::D_operator::initialize                                  20       7.36 ms       0.01       0.55     363.23 us     357.10 us     449.64 us
 | | |- sirius::Q_operator::initialize                                  20      40.11 ms       0.03       2.99       2.08 ms     563.88 us       2.15 ms
 | |
 | |- sirius::Band::solve                                               20       61.50 s      44.87      57.13        1.60 s        1.07 s        9.35 s
 | | |- sirius::Hamiltonian_k                                           20      11.32 ms       0.01       0.02     559.93 us     548.27 us     627.10 us
 | | | |- sirius::Local_operator::prepare_k                             20      11.20 ms       0.01      98.95     553.47 us     542.59 us     621.06 us
 | | | |- sirius::Beta_projectors_base::prepare                         20      83.41 us       0.00       0.74       4.10 us       3.77 us       4.65 us
 | | |- sirius::Band::diag_pseudo_potential_davidson                    20       61.49 s      44.86      99.98        1.60 s        1.07 s        9.35 s
 | | | |- sirius::Band::diag_pseudo_potential_davidson|alloc            20        1.34 s       0.98       2.18      18.67 ms      18.64 ms     982.91 ms
 | | | | |- sddk::matrix_storage::matrix_storage                       120     920.44 ms       0.67      68.80     488.50 ns     277.00 ns     839.25 ms
 | | | |- sirius::Hamiltonian_k::get_h_o_diag                           20     261.44 ms       0.19       0.43      12.89 ms      12.86 ms      16.41 ms
 | | | |- sirius::Band::diag_pseudo_potential_davidson|iter             20       59.60 s      43.49      96.94        1.55 s        1.02 s        9.30 s
 | | | | |- sirius::Hamiltonian_k::apply_h_s                            66       25.38 s      18.52      42.58     245.62 ms      23.18 ms        1.02 s
 | | | | | |- sirius::Local_operator::apply_h                           66       11.12 s       8.11      43.82     108.02 ms       5.66 ms     609.94 ms
 | | | | | | |- sddk::matrix_storage::remap_forward                     66        1.87 s       1.37      16.83      16.74 ms       2.33 ms     239.30 ms
 | | | | | | | |- sddk::matrix_storage::set_num_extra                   66      89.20 ms       0.07       4.77       2.09 us       1.58 us      88.99 ms
 | | | | | | | | |- sddk::matrix_storage::set_num_extra|alloc           20      89.08 ms       0.06      99.86       4.65 us       4.03 us      88.99 ms
 | | | | | | |- sddk::matrix_storage::set_num_extra                     66      89.33 ms       0.07       0.80       3.44 us       1.28 us      89.00 ms
 | | | | | | | |- sddk::matrix_storage::set_num_extra|alloc             20      89.15 ms       0.07      99.80       8.13 us       6.03 us      89.00 ms
 | | | | | | |- sddk::matrix_storage::remap_backward                    66        2.06 s       1.50      18.51      20.96 ms     735.19 us      67.69 ms
 | | | | | |- sirius::Beta_projectors_base::generate                   132     315.16 ms       0.23       1.24       2.23 ms       2.19 ms       2.92 ms
 | | | | | |- sirius::Beta_projectors_base::inner                      132        6.96 s       5.08      27.42      30.84 ms       1.48 ms     131.40 ms
 | | | | | | |- sirius::Beta_projectors_base::inner|comm               132        1.68 s       1.22      24.11       7.78 ms      85.41 us      49.47 ms
 | | | | | |- sirius::Non_local_operator::apply                        264        6.98 s       5.09      27.51      17.60 ms       2.41 ms      53.84 ms
 | | | | |- sddk::orthogonalize                                         66        5.90 s       4.30       9.89      69.42 ms       2.18 ms     220.24 ms
 | | | | | |- sddk::inner                                              112     921.50 ms       0.67      15.63       4.84 ms     163.04 us      24.11 ms
 | | | | | | |- sddk::inner|local                                      309       4.78 ms       0.00       0.52      12.83 us       5.94 us      33.60 us
 | | | | | |- sddk::orthogonalize|potrf                                 66     151.85 ms       0.11       2.58       1.51 ms      35.32 us       6.71 ms
 | | | | | |- sddk::orthogonalize|trtri                                 66     141.88 ms       0.10       2.41     655.91 us      26.43 us       7.86 ms
 | | | | | |- sddk::transform                                          244        4.18 s       3.05      70.95      12.30 ms      48.12 us      72.28 ms
 | | | | | | |- sddk::transform|init                                   244       2.68 ms       0.00       0.06       7.40 us       4.40 us      27.58 us
 | | | | | | |- sddk::transform|local                                  432       4.41 ms       0.00       0.11       8.88 us       2.98 us      55.46 us
 | | | | |- sirius::Band::set_subspace_mtrx                             66     901.18 ms       0.66       1.51      13.60 ms     676.21 us      51.27 ms
 | | | | | |- sddk::inner                                               66     867.42 ms       0.63      96.25      12.76 ms     545.77 us      50.42 ms
 | | | | | | |- sddk::inner|local                                      260       3.81 ms       0.00       0.44      11.62 us       6.02 us      38.46 us
 | | | | |- sirius::Band::diag_pseudo_potential_davidson|evp            66       25.23 s      18.41      42.33     370.85 ms      93.32 ms     853.92 ms
 | | | | | |- Eigensolver_elpa|solve_std                                66       25.23 s      18.41     100.00     370.85 ms      93.32 ms     853.92 ms
 | | | | | | |- Eigensolver_elpa|solve_std|setup                        66      30.85 ms       0.02       0.12     302.66 us      73.20 us       1.67 ms
 | | | | |- sirius::residuals                                           66        1.06 s       0.78       1.78       8.50 ms      10.95 us      65.26 ms
 | | | | | |- sddk::transform                                           46     990.97 ms       0.72      93.26      16.85 ms     918.86 us      62.30 ms
 | | | | | | |- sddk::transform|init                                    46     923.67 us       0.00       0.09      21.30 us      16.15 us      22.65 us
 | | | | | | |- sddk::transform|local                                  156       1.96 ms       0.00       0.20       7.97 us       3.29 us      69.17 us
 | | | | | |- sirius::normalized_preconditioned_residuals               46      53.96 ms       0.04       5.08     562.60 us     190.93 us       5.56 ms
 | | | | |- sirius::Band::diag_pseudo_potential_davidson|update_phi     20        1.13 s       0.82       1.90      47.48 ms      32.90 ms     109.32 ms
 | | | | | |- sddk::transform                                           20        1.13 s       0.82      99.99      47.47 ms      32.89 ms     109.31 ms
 | | | | | | |- sddk::transform|init                                    20     497.31 us       0.00       0.04      20.79 us      14.62 us      37.71 us
 | | | | | | |- sddk::transform|local                                   29     737.99 us       0.00       0.07      25.18 us      11.88 us      32.96 us
 | | |- sirius::Beta_projectors_base::dismiss                           20      11.38 us       0.00       0.00     563.00 ns     476.00 ns     762.00 ns
 | | |- sirius::K_point_set::sync_band_energies                         20     409.86 us       0.00       0.00      20.14 us      18.70 us      28.11 us
 | |
 | |- qe|sum_band                                                       20       18.81 s      13.72      17.47     934.81 ms     924.28 ms        1.02 s
 | | |- sirius::Density::generate                                       20       14.24 s      10.39      75.71     705.18 ms     698.06 ms     785.17 ms
 | | | |- sirius::Density::generate_valence                             20       14.24 s      10.39     100.00     705.18 ms     698.06 ms     785.17 ms
 | | | | |- sddk::matrix_storage::remap_forward                         20     827.72 ms       0.60       5.81      39.76 ms      37.98 ms      61.46 ms
 | | | | | |- sddk::matrix_storage::set_num_extra                       20     134.54 us       0.00       0.02       6.64 us       5.86 us       8.96 us
 | | | | | | |- sddk::matrix_storage::set_num_extra|alloc                1       5.51 us       0.00       4.09       5.51 us       5.51 us       5.51 us
 | | | | |- sirius::Density::add_k_point_contribution_dm                20        3.65 s       2.67      25.66     181.23 ms     176.45 ms     197.24 ms
 | | | | | |- sirius::Beta_projectors_base::prepare                     20     145.45 us       0.00       0.00       7.22 us       6.72 us       8.26 us
 | | | | | |- sirius::Beta_projectors_base::generate                    40      89.32 ms       0.07       2.44       2.24 ms       2.19 ms       2.29 ms
 | | | | | |- sirius::Beta_projectors_base::inner                       40        3.54 s       2.58      96.84      86.93 ms      84.74 ms     103.16 ms
 | | | | | | |- sirius::Beta_projectors_base::inner|comm                40     836.62 ms       0.61      23.65      19.57 ms      17.22 ms      35.52 ms
 | | | | | |- sirius::Beta_projectors_base::dismiss                     20      11.04 us       0.00       0.00     531.50 ns     447.00 ns     707.00 ns
 | | | | |- sirius::Density::add_k_point_contribution_rg                20        1.98 s       1.44      13.89      98.18 ms      98.01 ms     113.09 ms
 | | | | |- sirius::Smooth_periodic_function::fft_transform             20     180.68 ms       0.13       1.27       9.03 ms       9.02 ms       9.06 ms
 | | | | |- sirius::Density::augment                                    20        6.59 s       4.81      46.32     329.68 ms     329.60 ms     330.76 ms
 | | | | | |- sirius::Density::generate_rho_aug                         20        6.53 s       4.76      99.03     326.43 ms     326.34 ms     328.12 ms
 | | |- sirius_api::sirius_get_pw_coeffs                                20        2.32 s       1.69      12.31     115.37 ms     114.93 ms     120.57 ms
 | | | |- sirius::Smooth_periodic_function::gather_f_pw                 20        1.63 s       1.19      70.19      80.86 ms      80.44 ms      86.08 ms
 | | |- qe|sym_rho                                                      20      23.33 us       0.00       0.00       1.01 us     892.00 ns       3.96 us
 | |
 | |- qe|mix                                                            20        3.88 s       2.83       3.60     216.55 ms     764.12 us     227.10 ms
 | |- sirius_api::sirius_set_pw_coeffs                                  19        6.67 s       4.87       6.20     348.89 ms     322.54 ms     389.26 ms
 | | |- sirius::Smooth_periodic_function::fft_transform                 19     167.37 ms       0.12       2.51       8.73 ms       8.64 ms       9.24 ms
 | |
 | |- qe|newd                                                           19        6.62 s       4.83       6.15     348.37 ms     348.29 ms     349.89 ms
 | | |- sirius::Potential::generate_D_operator_matrix                   19        6.59 s       4.81      99.57     346.85 ms     346.79 ms     348.38 ms
 |
 |- sirius_api::sirius_get_wave_functions                                1        1.10 s       0.80       0.80        1.10 s        1.10 s        1.10 s
 | |- sddk::matrix_storage::matrix_storage                               1      16.84 us       0.00       0.00      16.84 us      16.84 us      16.84 us
 |
 |- qe|ions                                                              1     340.96 ms       0.25       0.25     340.96 ms     340.96 ms     340.96 ms
 | |- sirius_api::sirius_set_pw_coeffs                                   1     340.95 ms       0.25     100.00     340.95 ms     340.95 ms     340.95 ms
 | | |- sirius::Smooth_periodic_function::fft_transform                  1       8.58 ms       0.01       2.52       8.58 ms       8.58 ms       8.58 ms
 |
 |- qe|punch                                                             1     841.00 ns       0.00       0.00     841.00 ns     841.00 ns     841.00 ns
 |- sirius::finalize                                                     1     164.75 ms       0.12       0.12     164.75 ms     164.75 ms     164.75 ms