     Program PWSCF v.6.4.1 starts on  4Nov2019 at 16:34: 3

     R & G space division:  proc/nbgrp/npool/nimage =      16
     Reading input from pw.in
     Message from routine read_cards :
     DEPRECATED: no units specified in CELL_PARAMETERS card
Warning: card 1 1 1  0 0 0 ignored

     Current dimensions of program PWSCF are:
     Max number of different atomic species (ntypx) = 10
     Max number of k-points (npk) =  40000
     Max angular momentum in pseudopotentials (lmaxx) =  3
     Message from routine cell_base_init:
     DEPRECATED: use true lattice parameter, not A to a.u. conversion factor

     gamma-point specific algorithms are used

     Message from routine setup:
     using ibrav=0 with symmetry is DISCOURAGED, use correct ibrav instead

     bravais-lattice index     =            0
     lattice parameter (alat)  =       1.0000  a.u.
     unit-cell volume          =   69174.1805 (a.u.)^3
     number of atoms/cell      =          512
     number of atomic types    =            2
     number of electrons       =      2058.00
     number of Kohn-Sham states=         1235
     kinetic-energy cutoff     =      40.0000  Ry
     charge density cutoff     =     600.0000  Ry
     convergence threshold     =      1.0E-10
     mixing beta               =       0.7000
     number of iterations used =            8  plain     mixing
     Exchange-correlation=  SLA  PZ   NOGX NOGC
                           (   1   1   0   0   0   0   0)

     celldm(1)=   1.000000  celldm(2)=   0.000000  celldm(3)=   0.000000
     celldm(4)=   0.000000  celldm(5)=   0.000000  celldm(6)=   0.000000

     crystal axes: (cart. coord. in units of alat)
               a(1) = (  41.050143   0.000000   0.000000 )
               a(2) = (   0.000000  41.050143   0.000000 )
               a(3) = (   0.000000   0.000000  41.050143 )

     reciprocal axes: (cart. coord. in units 2 pi/alat)
               b(1) = (  0.024360  0.000000  0.000000 )
               b(2) = (  0.000000  0.024360  0.000000 )
               b(3) = (  0.000000  0.000000  0.024360 )

     PseudoPot. # 1 for Si read from file:
     ./si_lda_v1.uspp.F.UPF
     MD5 check sum: b5ade7b37ee992b02096e360e546dc2d
     Pseudo is Ultrasoft + core correction, Zval =  4.0
     Generated by new atomic code, or converted to UPF format
     Using radial grid of  899 points,  6 beta functions with:
                l(1) =   0
                l(2) =   0
                l(3) =   1
                l(4) =   1
                l(5) =   2
                l(6) =   2
     Q(r) pseudized with  8 coefficients,  rinner =    0.900   0.900   0.900
                                                       0.900   0.900

     PseudoPot. # 2 for Ge read from file:
     ./ge_lda_v1.4.uspp.F.UPF
     MD5 check sum: bf9d52b59cc8a669818bb2b52e0c2ba0
     Pseudo is Ultrasoft + core correction, Zval = 14.0
     Generated by new atomic code, or converted to UPF format
     Using radial grid of  873 points,  6 beta functions with:
                l(1) =   0
                l(2) =   0
                l(3) =   1
                l(4) =   1
                l(5) =   2
                l(6) =   2
     Q(r) pseudized with  8 coefficients,  rinner =    1.400   1.400   1.400
                                                       1.400   1.400

     atomic species   valence    mass     pseudopotential
        Si             4.00    28.08550     Si( 1.00)
        Ge            14.00    72.61000     Ge( 1.00)

     24 Sym. Ops. (no inversion) found

   Cartesian axes

     site n.     atom                  positions (alat units)
         1           Si  tau(   1) = (  20.5250715  20.5250715  20.5250715  )
         2           Si  tau(   2) = (  20.5250715  20.5250715  30.7876073  )
         3           Si  tau(   3) = (  20.5250715  20.5250715   0.0000000  )
         4           Si  tau(   4) = (  20.5250715  20.5250715  10.2625357  )
         5           Si  tau(   5) = (  20.5250715  30.7876073  20.5250715  )
         6           Si  tau(   6) = (  20.5250715  30.7876073  30.7876073  )
         7           Si  tau(   7) = (  20.5250715  30.7876073   0.0000000  )
         8           Si  tau(   8) = (  20.5250715  30.7876073  10.2625357  )
         9           Si  tau(   9) = (  20.5250715   0.0000000  20.5250715  )
        10           Si  tau(  10) = (  20.5250715   0.0000000  30.7876073  )
        11           Si  tau(  11) = (  20.5250715   0.0000000   0.0000000  )
        12           Si  tau(  12) = (  20.5250715   0.0000000  10.2625357  )
        13           Si  tau(  13) = (  20.5250715  10.2625357  20.5250715  )
        14           Si  tau(  14) = (  20.5250715  10.2625357  30.7876073  )
        15           Si  tau(  15) = (  20.5250715  10.2625357   0.0000000  )
        16           Si  tau(  16) = (  20.5250715  10.2625357  10.2625357  )
        17           Si  tau(  17) = (  30.7876073  20.5250715  20.5250715  )
        18           Si  tau(  18) = (  30.7876073  20.5250715  30.7876073  )
        19           Si  tau(  19) = (  30.7876073  20.5250715   0.0000000  )
        20           Si  tau(  20) = (  30.7876073  20.5250715  10.2625357  )
        21           Si  tau(  21) = (  30.7876073  30.7876073  20.5250715  )
        22           Si  tau(  22) = (  30.7876073  30.7876073  30.7876073  )
        23           Si  tau(  23) = (  30.7876073  30.7876073   0.0000000  )
        24           Si  tau(  24) = (  30.7876073  30.7876073  10.2625357  )
        25           Si  tau(  25) = (  30.7876073   0.0000000  20.5250715  )
        26           Si  tau(  26) = (  30.7876073   0.0000000  30.7876073  )
        27           Si  tau(  27) = (  30.7876073   0.0000000   0.0000000  )
        28           Si  tau(  28) = (  30.7876073   0.0000000  10.2625357  )
        29           Si  tau(  29) = (  30.7876073  10.2625357  20.5250715  )
        30           Si  tau(  30) = (  30.7876073  10.2625357  30.7876073  )
        31           Si  tau(  31) = (  30.7876073  10.2625357   0.0000000  )
        32           Si  tau(  32) = (  30.7876073  10.2625357  10.2625357  )
        33           Si  tau(  33) = (   0.0000000  20.5250715  20.5250715  )
        34           Si  tau(  34) = (   0.0000000  20.5250715  30.7876073  )
        35           Si  tau(  35) = (   0.0000000  20.5250715   0.0000000  )
        36           Si  tau(  36) = (   0.0000000  20.5250715  10.2625357  )
        37           Si  tau(  37) = (   0.0000000  30.7876073  20.5250715  )
        38           Si  tau(  38) = (   0.0000000  30.7876073  30.7876073  )
        39           Si  tau(  39) = (   0.0000000  30.7876073   0.0000000  )
        40           Si  tau(  40) = (   0.0000000  30.7876073  10.2625357  )
        41           Si  tau(  41) = (   0.0000000   0.0000000  20.5250715  )
        42           Si  tau(  42) = (   0.0000000   0.0000000  30.7876073  )
        43           Si  tau(  43) = (   0.0000000   0.0000000  10.2625357  )
        44           Si  tau(  44) = (   0.0000000  10.2625357  20.5250715  )
        45           Si  tau(  45) = (   0.0000000  10.2625357  30.7876073  )
        46           Si  tau(  46) = (   0.0000000  10.2625357   0.0000000  )
        47           Si  tau(  47) = (   0.0000000  10.2625357  10.2625357  )
        48           Si  tau(  48) = (  10.2625357  20.5250715  20.5250715  )
        49           Si  tau(  49) = (  10.2625357  20.5250715  30.7876073  )
        50           Si  tau(  50) = (  10.2625357  20.5250715   0.0000000  )
        51           Si  tau(  51) = (  10.2625357  20.5250715  10.2625357  )
        52           Si  tau(  52) = (  10.2625357  30.7876073  20.5250715  )
        53           Si  tau(  53) = (  10.2625357  30.7876073  30.7876073  )
        54           Si  tau(  54) = (  10.2625357  30.7876073   0.0000000  )
        55           Si  tau(  55) = (  10.2625357  30.7876073  10.2625357  )
        56           Si  tau(  56) = (  10.2625357   0.0000000  20.5250715  )
        57           Si  tau(  57) = (  10.2625357   0.0000000  30.7876073  )
        58           Si  tau(  58) = (  10.2625357   0.0000000   0.0000000  )
        59           Si  tau(  59) = (  10.2625357   0.0000000  10.2625357  )
        60           Si  tau(  60) = (  10.2625357  10.2625357  20.5250715  )
[...]
       498           Si  tau( 498) = (  12.8281697  23.0907054   2.5656339  )
       499           Si  tau( 499) = (  12.8281697  23.0907054  12.8281697  )
       500           Si  tau( 500) = (  12.8281697  33.3532412  23.0907054  )
       501           Si  tau( 501) = (  12.8281697  33.3532412  33.3532412  )
       502           Si  tau( 502) = (  12.8281697  33.3532412   2.5656339  )
       503           Si  tau( 503) = (  12.8281697  33.3532412  12.8281697  )
       504           Si  tau( 504) = (  12.8281697   2.5656339  23.0907054  )
       505           Si  tau( 505) = (  12.8281697   2.5656339  33.3532412  )
       506           Si  tau( 506) = (  12.8281697   2.5656339   2.5656339  )
       507           Si  tau( 507) = (  12.8281697   2.5656339  12.8281697  )
       508           Si  tau( 508) = (  12.8281697  12.8281697  23.0907054  )
       509           Si  tau( 509) = (  12.8281697  12.8281697  33.3532412  )
       510           Si  tau( 510) = (  12.8281697  12.8281697   2.5656339  )
       511           Si  tau( 511) = (  12.8281697  12.8281697  12.8281697  )
       512           Ge  tau( 512) = (   0.0000000   0.0000000   0.0000000  )

     number of k points=     1  Gaussian smearing, width (Ry)=  0.0010
                       cart. coord. in units 2pi/alat
        k(    1) = (   0.0000000   0.0000000   0.0000000), wk =   2.0000000

     Initial potential from superposition of free atoms

     starting charge 2057.69115, renormalised to 2058.00000

     Self-consistent Calculation

     iteration #  1     ecut=    40.00 Ry     beta= 0.70

     Threshold (ethr) on eigenvalues was too large:
     Diagonalizing with lowered threshold

     total energy              =   -5130.19855966 Ry
     Harris-Foulkes estimate   =   -5134.62794217 Ry
     estimated scf accuracy    <      12.77939751 Ry

     Band energy sum           =      68.27124815 Ry

[...]

     total energy              =   -5134.07184988 Ry
     Harris-Foulkes estimate   =   -5134.07184988 Ry
     estimated scf accuracy    <          1.8E-10 Ry

[...]

     iteration # 19     ecut=    40.00 Ry     beta= 0.70

     End of self-consistent calculation

          k = 0.0000 0.0000 0.0000 (147954 PWs)   bands (ev):

   -18.2591 -18.2591 -18.2591 -18.2289 -18.2289  -5.9530  -5.7060  -5.6752
    -5.6752  -5.6752  -5.6747  -5.6747  -5.4576  -5.4086  -5.4086  -5.4085
    -5.4075  -5.4075  -5.4075  -5.4073  -5.4073  -5.4071  -5.4071  -5.4071
    -5.1776  -5.1485  -5.1485  -5.1485  -5.1481  -5.1481  -5.1481  -5.1479
    -4.8951  -4.8666  -4.8666  -4.8666  -4.8663  -4.8663  -4.7070  -4.6204
    -4.6204  -4.6204  -4.6192  -4.6192  -4.6188  -4.6188  -4.6188  -4.6186
    -4.6186  -4.6186  -4.6184  -4.6184  -4.6184  -4.6182  -4.6182  -4.6182
    -4.6181  -4.6181  -4.6179  -4.6179  -4.6179  -4.6178  -4.4475  -4.3925
    -4.3925  -4.3925  -4.3913  -4.3913  -4.3913  -4.3912  -4.3907  -4.3907
[...]
 | | | | |- sirius::K_point::generate_atomic_wave_functions              1     106.68 ms       0.06      82.49     106.68 ms     106.68 ms     106.68 ms
 | | | |- sirius::Hamiltonian_k::apply_h_s                               1        2.11 s       1.27      53.00        2.11 s        2.11 s        2.11 s
 | | | | |- sirius::Local_operator::apply_h                              1        1.32 s       0.80      62.74        1.32 s        1.32 s        1.32 s
 | | | | | |- sddk::matrix_storage::remap_forward                        1     473.68 ms       0.29      35.83     473.68 ms     473.68 ms     473.68 ms
 | | | | | | |- sddk::matrix_storage::set_num_extra                      1     338.56 ms       0.20      71.48     338.56 ms     338.56 ms     338.56 ms
 | | | | | | | |- sddk::matrix_storage::set_num_extra|alloc              1     338.56 ms       0.20     100.00     338.56 ms     338.56 ms     338.56 ms
 | | | | | |- sddk::matrix_storage::set_num_extra                        1     358.30 ms       0.22      27.11     358.30 ms     358.30 ms     358.30 ms
 | | | | | | |- sddk::matrix_storage::set_num_extra|alloc                1     358.30 ms       0.22     100.00     358.30 ms     358.30 ms     358.30 ms
 | | | | | |- sddk::matrix_storage::remap_backward                       1     130.08 ms       0.08       9.84     130.08 ms     130.08 ms     130.08 ms
 | | | | |- sirius::Beta_projectors_base::generate                       2       5.69 ms       0.00       0.27       2.85 ms       2.27 ms       3.42 ms
 | | | | |- sirius::Beta_projectors_base::inner                          2     445.05 ms       0.27      21.12     222.53 ms     199.06 ms     245.99 ms
 | | | | | |- sirius::Beta_projectors_base::inner|comm                   2     114.83 ms       0.07      25.80      57.42 ms      56.99 ms      57.84 ms
 | | | | |- sirius::Non_local_operator::apply                            4     334.21 ms       0.20      15.86      82.75 ms      82.26 ms      86.46 ms
 | | | |- sirius::Band::set_subspace_mtrx                                2     111.91 ms       0.07       2.82      55.96 ms      45.00 ms      66.91 ms
 | | | | |- sddk::inner                                                  2     111.79 ms       0.07      99.89      55.90 ms      44.95 ms      66.85 ms
 | | | | | |- sddk::inner|local                                         18     470.85 us       0.00       0.42      24.85 us       8.29 us      69.53 us
 | | | |- Eigensolver_elpa|to_std                                        1     284.14 ms       0.17       7.15     284.14 ms     284.14 ms     284.14 ms
 | | | |- Eigensolver_elpa|solve_std                                     1     290.59 ms       0.18       7.31     290.59 ms     290.59 ms     290.59 ms
 | | | | |- Eigensolver_elpa|solve_std|setup                             1     843.01 us       0.00       0.29     843.01 us     843.01 us     843.01 us
 | | | |- Eigensolver_elpa|bt                                            1       7.79 ms       0.00       0.20       7.79 ms       7.79 ms       7.79 ms
 | | | |- sddk::transform                                                1     158.10 ms       0.10       3.98     158.10 ms     158.10 ms     158.10 ms
 | | | | |- sddk::transform|init                                         1      41.59 us       0.00       0.03      41.59 us      41.59 us      41.59 us
 | | | | |- sddk::transform|local                                        2      44.96 us       0.00       0.03      22.48 us      11.19 us      33.78 us
 | | |- sirius::Beta_projectors_base::dismiss                            1     611.00 ns       0.00       0.00     611.00 ns     611.00 ns     611.00 ns
 |
 |- qe|electrons                                                         1      130.50 s      78.81      78.81      130.50 s      130.50 s      130.50 s
 | |- sirius::Hamiltonian0                                              20        1.22 s       0.74       0.94      63.99 ms      25.92 ms      64.89 ms
 | | |- sirius::Local_operator                                          20        1.20 s       0.73      98.36      63.00 ms      24.91 ms      63.90 ms
 | | | |- sirius::Smooth_periodic_function                              20     110.88 ms       0.07       9.23       5.05 ms       4.98 ms      13.79 ms
 | | | |- sirius::Smooth_periodic_function::fft_transform               20     601.37 ms       0.36      50.08      31.38 ms      12.93 ms      32.45 ms
 | | |- sirius::Non_local_operator                                      40       3.02 ms       0.00       0.25      75.78 us      65.02 us      83.36 us
 | | |- sirius::D_operator::initialize                                  20       7.12 ms       0.00       0.58     355.14 us     349.82 us     363.96 us
 | | |- sirius::Q_operator::initialize                                  20       5.57 ms       0.00       0.46     277.22 us     274.98 us     289.30 us
 | |
 | |- sirius::Band::solve                                               20       69.34 s      41.87      53.13        1.72 s        1.11 s       10.79 s
 | | |- sirius::Hamiltonian_k                                           20      13.85 ms       0.01       0.02     688.12 us     677.78 us     751.52 us
 | | | |- sirius::Local_operator::prepare_k                             20      13.72 ms       0.01      99.05     681.59 us     671.12 us     744.53 us
 | | | |- sirius::Beta_projectors_base::prepare                         20      89.39 us       0.00       0.65       4.47 us       4.07 us       5.02 us
 | | |- sirius::Band::diag_pseudo_potential_davidson                    20       69.32 s      41.86      99.98        1.72 s        1.11 s       10.79 s
 | | | |- sirius::Band::diag_pseudo_potential_davidson|alloc            20        2.68 s       1.62       3.86      18.80 ms      18.75 ms        2.32 s
 | | | | |- sddk::matrix_storage::matrix_storage                       120        2.25 s       1.36      84.05     588.50 ns     300.00 ns        2.05 s
 | | | |- sirius::Hamiltonian_k::get_h_o_diag                           20     268.00 ms       0.16       0.39      13.39 ms      13.35 ms      13.48 ms
 | | | |- sirius::Band::diag_pseudo_potential_davidson|iter             20       66.09 s      39.91      95.34        1.68 s        1.06 s       10.74 s
 | | | | |- sirius::Hamiltonian_k::apply_h_s                            66       26.90 s      16.24      40.69     250.97 ms      39.57 ms        1.41 s
 | | | | | |- sirius::Local_operator::apply_h                           66       12.03 s       7.27      44.75     112.43 ms      13.77 ms     979.01 ms
 | | | | | | |- sddk::matrix_storage::remap_forward                     66        2.34 s       1.41      19.41      20.31 ms       5.31 ms     451.70 ms
 | | | | | | | |- sddk::matrix_storage::set_num_extra                   66     226.21 ms       0.14       9.68       2.26 us       1.55 us     225.98 ms
 | | | | | | | | |- sddk::matrix_storage::set_num_extra|alloc           20     226.07 ms       0.14      99.94       4.87 us       4.16 us     225.98 ms
 | | | | | | |- sddk::matrix_storage::set_num_extra                     66     228.19 ms       0.14       1.90       3.65 us       1.18 us     227.85 ms
 | | | | | | | |- sddk::matrix_storage::set_num_extra|alloc             20     228.01 ms       0.14      99.92       8.38 us       6.22 us     227.85 ms
 | | | | | | |- sddk::matrix_storage::remap_backward                    66        2.25 s       1.36      18.72      20.72 ms       5.25 ms      78.21 ms
 | | | | | |- sirius::Beta_projectors_base::generate                   132     319.41 ms       0.19       1.19       2.26 ms       2.23 ms       2.95 ms
 | | | | | |- sirius::Beta_projectors_base::inner                      132        7.31 s       4.42      27.19      29.24 ms       1.53 ms     128.18 ms
 | | | | | | |- sirius::Beta_projectors_base::inner|comm               132        2.21 s       1.34      30.23      10.44 ms     122.91 us      49.26 ms
 | | | | | |- sirius::Non_local_operator::apply                        264        7.23 s       4.36      26.87      18.60 ms       3.53 ms      53.95 ms
 | | | | |- sddk::orthogonalize                                         66        6.07 s       3.67       9.18      71.86 ms       2.15 ms     230.67 ms
 | | | | | |- sddk::inner                                              112        1.04 s       0.63      17.13       5.06 ms     153.57 us      29.67 ms
 | | | | | | |- sddk::inner|local                                      309       6.83 ms       0.00       0.66      17.55 us       7.18 us      61.03 us
 | | | | | |- sddk::orthogonalize|potrf                                 66     150.46 ms       0.09       2.48       1.58 ms      37.02 us       9.40 ms
 | | | | | |- sddk::orthogonalize|trtri                                 66     165.28 ms       0.10       2.72     666.48 us      28.65 us      12.31 ms
 | | | | | |- sddk::transform                                          244        4.20 s       2.54      69.26      10.91 ms      47.36 us      72.62 ms
 | | | | | | |- sddk::transform|init                                   244       2.59 ms       0.00       0.06       6.97 us       4.09 us      24.56 us
 | | | | | | |- sddk::transform|local                                  432       4.66 ms       0.00       0.11       9.36 us       3.19 us      44.42 us
 | | | | |- sirius::Band::set_subspace_mtrx                             66     923.37 ms       0.56       1.40      13.87 ms     674.66 us      38.70 ms
 | | | | | |- sddk::inner                                               66     889.08 ms       0.54      96.29      13.03 ms     549.02 us      37.84 ms
 | | | | | | |- sddk::inner|local                                      260       5.83 ms       0.00       0.66      17.60 us       7.23 us      63.93 us
 | | | | |- sirius::Band::diag_pseudo_potential_davidson|evp            66       29.80 s      18.00      45.10     411.42 ms     102.31 ms        1.04 s
 | | | | | |- Eigensolver_elpa|solve_std                                66       29.80 s      18.00     100.00     411.42 ms     102.31 ms        1.04 s
 | | | | | | |- Eigensolver_elpa|solve_std|setup                        66      32.79 ms       0.02       0.11     333.22 us      73.16 us       1.39 ms
 | | | | |- sirius::residuals                                           66        1.19 s       0.72       1.80      11.76 ms      10.79 us      91.93 ms
 | | | | | |- sddk::transform                                           46        1.10 s       0.66      92.52      17.44 ms       1.06 ms      90.75 ms
 | | | | | | |- sddk::transform|init                                    46     871.11 us       0.00       0.08      19.67 us      14.95 us      29.48 us
 | | | | | | |- sddk::transform|local                                  156       2.05 ms       0.00       0.19       8.83 us       3.65 us      79.15 us
 | | | | | |- sirius::normalized_preconditioned_residuals               46      57.39 ms       0.03       4.83     653.02 us     209.77 us       4.92 ms
 | | | | |- sirius::Band::diag_pseudo_potential_davidson|update_phi     20        1.21 s       0.73       1.83      50.75 ms      32.90 ms     131.63 ms
 | | | | | |- sddk::transform                                           20        1.21 s       0.73      99.99      50.75 ms      32.89 ms     131.63 ms
 | | | | | | |- sddk::transform|init                                    20     460.48 us       0.00       0.04      19.93 us      13.91 us      34.83 us
 | | | | | | |- sddk::transform|local                                   29     719.23 us       0.00       0.06      24.30 us      11.68 us      32.26 us
 | | |- sirius::Beta_projectors_base::dismiss                           20      13.53 us       0.00       0.00     659.00 ns     574.00 ns     927.00 ns
 | | |- sirius::K_point_set::sync_band_energies                         20     401.66 us       0.00       0.00      19.72 us      18.51 us      28.04 us
 | |
 | |- qe|sum_band                                                       20       20.50 s      12.38      15.71        1.02 s     998.04 ms        1.09 s
 | | |- sirius::Density::generate                                       20       15.02 s       9.07      73.28     748.81 ms     734.34 ms     803.95 ms
 | | | |- sirius::Density::generate_valence                             20       15.02 s       9.07     100.00     748.81 ms     734.34 ms     803.95 ms
 | | | | |- sddk::matrix_storage::remap_forward                         20     897.70 ms       0.54       5.97      43.59 ms      39.55 ms      80.56 ms
 | | | | | |- sddk::matrix_storage::set_num_extra                       20     129.41 us       0.00       0.01       6.23 us       5.60 us      11.52 us
 | | | | | | |- sddk::matrix_storage::set_num_extra|alloc                1       7.51 us       0.00       5.80       7.51 us       7.51 us       7.51 us
 | | | | |- sirius::Density::add_k_point_contribution_dm                20        3.77 s       2.28      25.11     186.69 ms     178.17 ms     226.74 ms
 | | | | | |- sirius::Beta_projectors_base::prepare                     20     151.39 us       0.00       0.00       7.43 us       6.82 us       8.79 us
 | | | | | |- sirius::Beta_projectors_base::generate                    40      90.39 ms       0.05       2.40       2.26 ms       2.24 ms       2.31 ms
 | | | | | |- sirius::Beta_projectors_base::inner                       40        3.65 s       2.21      96.89      90.39 ms      86.15 ms     115.93 ms
 | | | | | | |- sirius::Beta_projectors_base::inner|comm                40        1.14 s       0.69      31.29      27.48 ms      22.65 ms      53.44 ms
 | | | | | |- sirius::Beta_projectors_base::dismiss                     20      10.60 us       0.00       0.00     510.00 ns     406.00 ns     701.00 ns
 | | | | |- sirius::Density::add_k_point_contribution_rg                20        2.03 s       1.23      13.52     100.55 ms     100.01 ms     122.47 ms
 | | | | |- sirius::Smooth_periodic_function::fft_transform             20     180.04 ms       0.11       1.20       9.00 ms       8.97 ms       9.03 ms
 | | | | |- sirius::Density::augment                                    20        7.01 s       4.24      46.68     350.62 ms     343.23 ms     358.39 ms
 | | | | | |- sirius::Density::generate_rho_aug                         20        6.95 s       4.20      99.11     347.51 ms     340.15 ms     355.31 ms
 | | |- sirius_api::sirius_get_pw_coeffs                                20        2.94 s       1.78      14.35     146.33 ms     144.92 ms     162.06 ms
 | | | |- sirius::Smooth_periodic_function::gather_f_pw                 20        2.16 s       1.31      73.59     107.52 ms     105.90 ms     123.07 ms
 | | |- qe|sym_rho                                                      20      25.63 us       0.00       0.00       1.12 us     867.00 ns       4.19 us
 | |
 | |- qe|mix                                                            20        4.18 s       2.52       3.20     238.20 ms     764.86 us     252.45 ms
 | |- sirius_api::sirius_set_pw_coeffs                                  19       18.48 s      11.16      14.16     968.25 ms     887.99 ms        1.06 s
 | | |- sirius::Smooth_periodic_function::fft_transform                 19     184.64 ms       0.11       1.00       8.80 ms       8.72 ms      23.26 ms
 | |
 | |- qe|newd                                                           19        7.02 s       4.24       5.38     369.38 ms     368.77 ms     373.78 ms
 | | |- sirius::Potential::generate_D_operator_matrix                   19        7.00 s       4.23      99.61     367.95 ms     367.32 ms     372.34 ms
 |
 |- sirius_api::sirius_get_wave_functions                                1        1.29 s       0.78       0.78        1.29 s        1.29 s        1.29 s
 | |- sddk::matrix_storage::matrix_storage                               1      21.82 us       0.00       0.00      21.82 us      21.82 us      21.82 us
 |
 |- qe|ions                                                              1     981.29 ms       0.59       0.59     981.29 ms     981.29 ms     981.29 ms
 | |- sirius_api::sirius_set_pw_coeffs                                   1     981.27 ms       0.59     100.00     981.27 ms     981.27 ms     981.27 ms
 | | |- sirius::Smooth_periodic_function::fft_transform                  1       8.78 ms       0.01       0.90       8.78 ms       8.78 ms       8.78 ms
 |
 |- qe|punch                                                             1     606.00 ns       0.00       0.00     606.00 ns     606.00 ns     606.00 ns
 |- sirius::finalize                                                     1     236.20 ms       0.14       0.14     236.20 ms     236.20 ms     236.20 ms