     Program PWSCF v.6.1 (svn rev. 13369) starts on 21Apr2017 at  9:28:17

     Current dimensions of program PWSCF are:
     Max number of different atomic species (ntypx) = 10
     Max number of k-points (npk) =  40000
     Max angular momentum in pseudopotentials (lmaxx) =  3

     Subspace diagonalization in iterative solution of the eigenvalue problem:
     one sub-group per band group will be used

     bravais-lattice index     =            0
     lattice parameter (alat)  =      21.3697  a.u.
     unit-cell volume          =    2870.2376 (a.u.)^3
     number of atoms/cell      =           24
     number of atomic types    =            2
     number of electrons       =       192.00
     number of Kohn-Sham states=          115
     kinetic-energy cutoff     =      45.0000  Ry
     charge density cutoff     =     360.0000  Ry
     convergence threshold     =      2.4E-07
     mixing beta               =       0.3500
     number of iterations used =            8  plain     mixing
     Exchange-correlation      = SLA  PW   PBE  PBE ( 1  4  3  4 0 0)

     celldm(1)=  21.369685  celldm(2)=   0.000000  celldm(3)=   0.000000
     celldm(4)=   0.000000  celldm(5)=   0.000000  celldm(6)=   0.000000

     crystal axes: (cart. coord. in units of alat)
               a(1) = (   1.000000   0.000000   0.000000 )
               a(2) = (   0.000000   0.624362   0.236591 )
               a(3) = (   0.000000   0.000000   0.471071 )

     reciprocal axes: (cart. coord. in units 2 pi/alat)
               b(1) = (  1.000000  0.000000  0.000000 )
               b(2) = (  0.000000  1.601634  0.000000 )
               b(3) = (  0.000000 -0.804405  2.122821 )

     PseudoPot. # 1 for Si read from file:
     ./pseudo/Si.pbe-n-rrkjus_psl.1.0.0.UPF
     MD5 check sum: d928fff27e2cf23ab01de9cd48acd62a
     Pseudo is Ultrasoft + core correction, Zval =  4.0
     Generated using "atomic" code by A. Dal Corso  v.5.1
     Using radial grid of 1141 points,  6 beta functions with:
                l(1) =   0
                l(2) =   0
                l(3) =   1
                l(4) =   1
                l(5) =   2
                l(6) =   2
     Q(r) pseudized with 0 coefficients

     PseudoPot. # 2 for Zr read from file:
     ./pseudo/Zr_pbe_v1.uspp.F.UPF
     MD5 check sum: 5db81b1e868ab7776c4564c113de050b
     Pseudo is Ultrasoft + core correction, Zval = 12.0
     Generated by new atomic code, or converted to UPF format
     Using radial grid of  887 points,  6 beta functions with:
                l(1) =   0
                l(2) =   0
                l(3) =   1
                l(4) =   1
                l(5) =   2
                l(6) =   2
     Q(r) pseudized with  6 coefficients,  rinner =    1.200   1.200   1.200
                                                       1.200   1.200

     atomic species   valence    mass     pseudopotential
        Si             4.00    28.08550     Si( 1.00)
        Zr            12.00    91.22400     Zr( 1.00)

     Starting magnetic structure
     atomic species   magnetization
        Si           0.000
        Zr           0.417

     No symmetry found

                                    s                        frac. trans.

      isym =  1     identity

 cryst.   s( 1) = (     1          0          0      )
                  (     0          1          0      )
                  (     0          0          1      )

 cart.    s( 1) = (  1.0000000  0.0000000  0.0000000 )
                  (  0.0000000  1.0000000  0.0000000 )
                  (  0.0000000 -0.0000000  1.0000000 )

   Cartesian axes

     site n.     atom                  positions (alat units)
         1           Zr  tau(   1) = (   0.0849136   0.2617535   0.2332711  )
         2           Zr  tau(   2) = (   0.0826137   0.5816343   0.3496644  )
         3           Zr  tau(   3) = (   0.4177076   0.2652574   0.2447223  )
         4           Zr  tau(   4) = (   0.4195508   0.5854738   0.3567491  )
         5           Zr  tau(   5) = (   0.7490816   0.2714019   0.2432517  )
         6           Zr  tau(   6) = (   0.7531469   0.5845841   0.3592668  )
         7           Zr  tau(   7) = (   0.2456702   0.0436282   0.3461261  )
         8           Zr  tau(   8) = (   0.2541896   0.3521749   0.4677362  )
         9           Zr  tau(   9) = (   0.5872608   0.0433430   0.3459169  )
        10           Zr  tau(  10) = (   0.5763432   0.3565062   0.4693231  )
        11           Zr  tau(  11) = (   0.9223878   0.0494515   0.3509161  )
        12           Zr  tau(  12) = (   0.9187433   0.3618918   0.4749010  )
        13           Si  tau(  13) = (   0.2475696   0.1272710   0.1187276  )
        14           Si  tau(  14) = (   0.2501174   0.4481364   0.2364789  )
        15           Si  tau(  15) = (   0.5845975   0.1311824   0.1168144  )
        16           Si  tau(  16) = (   0.5880199   0.4482199   0.2391529  )
        17           Si  tau(  17) = (   0.9108569   0.1304446   0.1198963  )
        18           Si  tau(  18) = (   0.9144195   0.4371156   0.2413626  )
        19           Si  tau(  19) = (   0.0764592   0.1822462   0.4655981  )
        20           Si  tau(  20) = (   0.0886257   0.4908126   0.5881735  )
        21           Si  tau(  21) = (   0.4197308   0.1822714   0.4594581  )
        22           Si  tau(  22) = (   0.4125918   0.4976556   0.5869724  )
        23           Si  tau(  23) = (   0.7479428   0.1873324   0.4659956  )
        24           Si  tau(  24) = (   0.7441195   0.4928691   0.5799690  )

   Crystallographic axes

     site n.     atom                  positions (cryst. coord.)
         1           Zr  tau(   1) = (  0.0849136  0.4192332  0.2846370  )
         2           Zr  tau(   2) = (  0.0826137  0.9315652  0.2744055  )
         3           Zr  tau(   3) = (  0.4177076  0.4248452  0.3061272  )
         4           Zr  tau(   4) = (  0.4195508  0.9377145  0.2863564  )
         5           Zr  tau(   5) = (  0.7490816  0.4346864  0.2980629  )
         6           Zr  tau(   6) = (  0.7531469  0.9362897  0.2924167  )
         7           Zr  tau(   7) = (  0.2456702  0.0698764  0.6996688  )
         8           Zr  tau(   8) = (  0.2541896  0.5640551  0.7096290  )
         9           Zr  tau(   9) = (  0.5872608  0.0694196  0.6994543  )
        10           Zr  tau(  10) = (  0.5763432  0.5709923  0.7095134  )
        11           Zr  tau(  11) = (  0.9223878  0.0792032  0.7051529  )
        12           Zr  tau(  12) = (  0.9187433  0.5796181  0.7170221  )
        13           Si  tau(  13) = (  0.2475696  0.2038415  0.1496600  )
        14           Si  tau(  14) = (  0.2501174  0.7177503  0.1415194  )
        15           Si  tau(  15) = (  0.5845975  0.2101062  0.1424524  )
        16           Si  tau(  16) = (  0.5880199  0.7178842  0.1471284  )
        17           Si  tau(  17) = (  0.9108569  0.2089244  0.1495881  )
        18           Si  tau(  18) = (  0.9144195  0.7000990  0.1607518  )
        19           Si  tau(  19) = (  0.0764592  0.2918917  0.8417816  )
        20           Si  tau(  20) = (  0.0886257  0.7861020  0.8537748  )
        21           Si  tau(  21) = (  0.4197308  0.2919321  0.8287272  )
        22           Si  tau(  22) = (  0.4125918  0.7970621  0.8457206  )
        23           Si  tau(  23) = (  0.7479428  0.3000379  0.8385339  )
        24           Si  tau(  24) = (  0.7441195  0.7893958  0.8347040  )

     number of k points=   352  Marzari-Vanderbilt smearing, width (Ry)=  0.0200
                       cart. coord. in units 2pi/alat
        k(    1) = (   0.0000000   0.0000000   0.0000000), wk =   0.0014245
        k(    2) = (   0.0000000  -0.0618773   0.1632939), wk =   0.0028490
        k(    3) = (   0.0000000  -0.1237546   0.3265878), wk =   0.0028490
        k(    4) = (   0.0000000  -0.1856318   0.4898817), wk =   0.0028490
        k(    5) = (   0.0000000  -0.2475091   0.6531756), wk =   0.0028490
        k(    6) = (   0.0000000  -0.3093864   0.8164694), wk =   0.0028490
        k(    7) = (   0.0000000  -0.3712637   0.9797633), wk =   0.0028490
        k(    8) = (   0.0000000   0.1779593   0.0000000), wk =   0.0028490
        k(    9) = (   0.0000000   0.1160820   0.1632939), wk =   0.0028490
        k(   10) = (   0.0000000   0.0542047   0.3265878), wk =   0.0028490
        k(   11) = (   0.0000000  -0.0076725   0.4898817), wk =   0.0028490
        k(   12) = (   0.0000000  -0.0695498   0.6531756), wk =   0.0028490
        k(   13) = (   0.0000000  -0.1314271   0.8164694), wk =   0.0028490
        k(   14) = (   0.0000000  -0.1933044   0.9797633), wk =   0.0028490
        k(   15) = (   0.0000000   0.5492230  -0.9797633), wk =   0.0028490
        k(   16) = (   0.0000000   0.4873457  -0.8164694), wk =   0.0028490
        k(   17) = (   0.0000000   0.4254684  -0.6531756), wk =   0.0028490
        k(   18) = (   0.0000000   0.3635911  -0.4898817), wk =   0.0028490
        k(   19) = (   0.0000000   0.3017139  -0.3265878), wk =   0.0028490
        k(   20) = (   0.0000000   0.2398366  -0.1632939), wk =   0.0028490
        k(   21) = (   0.0000000   0.3559186   0.0000000), wk =   0.0028490
        k(   22) = (   0.0000000   0.2940413   0.1632939), wk =   0.0028490
        k(   23) = (   0.0000000   0.2321641   0.3265878), wk =   0.0028490
        k(   24) = (   0.0000000   0.1702868   0.4898817), wk =   0.0028490
        k(   25) = (   0.0000000   0.1084095   0.6531756), wk =   0.0028490
        k(   26) = (   0.0000000   0.0465322   0.8164694), wk =   0.0028490
        k(   27) = (   0.0000000  -0.0153451   0.9797633), wk =   0.0028490
        k(   28) = (   0.0000000   0.7271823  -0.9797633), wk =   0.0028490
        k(   29) = (   0.0000000   0.6653050  -0.8164694), wk =   0.0028490
        k(   30) = (   0.0000000   0.6034277  -0.6531756), wk =   0.0028490
        k(   31) = (   0.0000000   0.5415504  -0.4898817), wk =   0.0028490
        k(   32) = (   0.0000000   0.4796732  -0.3265878), wk =   0.0028490
        k(   33) = (   0.0000000   0.4177959  -0.1632939), wk =   0.0028490
        k(   34) = (   0.0000000   0.5338779   0.0000000), wk =   0.0028490
        k(   35) = (   0.0000000   0.4720006   0.1632939), wk =   0.0028490
        k(   36) = (   0.0000000   0.4101234   0.3265878), wk =   0.0028490
        k(   37) = (   0.0000000   0.3482461   0.4898817), wk =   0.0028490
        k(   38) = (   0.0000000   0.2863688   0.6531756), wk =   0.0028490
        k(   39) = (   0.0000000   0.2244915   0.8164694), wk =   0.0028490
        k(   40) = (   0.0000000   0.1626142   0.9797633), wk =   0.0028490
        k(   41) = (   0.0000000   0.9051416  -0.9797633), wk =   0.0028490
        k(   42) = (   0.0000000   0.8432643  -0.8164694), wk =   0.0028490
        k(   43) = (   0.0000000   0.7813870  -0.6531756), wk =   0.0028490
        k(   44) = (   0.0000000   0.7195097  -0.4898817), wk =   0.0028490
        k(   45) = (   0.0000000   0.6576325  -0.3265878), wk =   0.0028490
        k(   46) = (   0.0000000   0.5957552  -0.1632939), wk =   0.0028490
        k(   47) = (   0.0000000   0.7118372   0.0000000), wk =   0.0028490
        k(   48) = (   0.0000000   0.6499599   0.1632939), wk =   0.0028490
        k(   49) = (   0.0000000   0.5880827   0.3265878), wk =   0.0028490
        k(   50) = (   0.0000000   0.5262054   0.4898817), wk =   0.0028490
        k(   51) = (   0.0000000   0.4643281   0.6531756), wk =   0.0028490
        k(   52) = (   0.0000000   0.4024508   0.8164694), wk =   0.0028490
        k(   53) = (   0.0000000   0.3405735   0.9797633), wk =   0.0028490
        k(   54) = (   0.0000000   1.0831009  -0.9797633), wk =   0.0028490
        k(   55) = (   0.0000000   1.0212236  -0.8164694), wk =   0.0028490
        k(   56) = (   0.0000000   0.9593463  -0.6531756), wk =   0.0028490
        k(   57) = (   0.0000000   0.8974690  -0.4898817), wk =   0.0028490
        k(   58) = (   0.0000000   0.8355918  -0.3265878), wk =   0.0028490
        k(   59) = (   0.0000000   0.7737145  -0.1632939), wk =   0.0028490
        k(   60) = (   0.1666667   0.0000000   0.0000000), wk =   0.0028490
[...]
        k(  338) = (   0.3333333  -0.6576325   0.3265878), wk =   0.0028490
        k(  339) = (   0.3333333  -0.5957552   0.1632939), wk =   0.0028490
        k(  340) = (   0.3333333  -0.7118372   0.0000000), wk =   0.0028490
        k(  341) = (   0.3333333  -0.6499599  -0.1632939), wk =   0.0028490
        k(  342) = (   0.3333333  -0.5880827  -0.3265878), wk =   0.0028490
        k(  343) = (   0.3333333  -0.5262054  -0.4898817), wk =   0.0028490
        k(  344) = (   0.3333333  -0.4643281  -0.6531756), wk =   0.0028490
        k(  345) = (   0.3333333  -0.4024508  -0.8164694), wk =   0.0028490
        k(  346) = (   0.3333333  -0.3405735  -0.9797633), wk =   0.0028490
        k(  347) = (   0.3333333  -1.0831009   0.9797633), wk =   0.0028490
        k(  348) = (   0.3333333  -1.0212236   0.8164694), wk =   0.0028490
        k(  349) = (   0.3333333  -0.9593463   0.6531756), wk =   0.0028490
        k(  350) = (   0.3333333  -0.8974690   0.4898817), wk =   0.0028490
        k(  351) = (   0.3333333  -0.8355918   0.3265878), wk =   0.0028490
        k(  352) = (   0.3333333  -0.7737145   0.1632939), wk =   0.0028490

                       cryst. coord.
        k(    1) = (   0.0000000   0.0000000   0.0000000), wk =   0.0014245
        k(    2) = (   0.0000000   0.0000000   0.0769231), wk =   0.0028490
        k(    3) = (   0.0000000   0.0000000   0.1538462), wk =   0.0028490
        k(    4) = (   0.0000000   0.0000000   0.2307692), wk =   0.0028490
        k(    5) = (   0.0000000   0.0000000   0.3076923), wk =   0.0028490
        k(    6) = (   0.0000000   0.0000000   0.3846154), wk =   0.0028490
        k(    7) = (   0.0000000   0.0000000   0.4615385), wk =   0.0028490
        k(    8) = (   0.0000000   0.1111111   0.0000000), wk =   0.0028490
        k(    9) = (   0.0000000   0.1111111   0.0769231), wk =   0.0028490
        k(   10) = (   0.0000000   0.1111111   0.1538462), wk =   0.0028490
        k(   11) = (   0.0000000   0.1111111   0.2307692), wk =   0.0028490
        k(   12) = (   0.0000000   0.1111111   0.3076923), wk =   0.0028490
        k(   13) = (   0.0000000   0.1111111   0.3846154), wk =   0.0028490
        k(   14) = (   0.0000000   0.1111111   0.4615385), wk =   0.0028490
        k(   15) = (   0.0000000   0.1111111  -0.4615385), wk =   0.0028490
        k(   16) = (   0.0000000   0.1111111  -0.3846154), wk =   0.0028490
        k(   17) = (   0.0000000   0.1111111  -0.3076923), wk =   0.0028490
        k(   18) = (   0.0000000   0.1111111  -0.2307692), wk =   0.0028490
        k(   19) = (   0.0000000   0.1111111  -0.1538462), wk =   0.0028490
        k(   20) = (   0.0000000   0.1111111  -0.0769231), wk =   0.0028490
        k(   21) = (   0.0000000   0.2222222   0.0000000), wk =   0.0028490
        k(   22) = (   0.0000000   0.2222222   0.0769231), wk =   0.0028490
        k(   23) = (   0.0000000   0.2222222   0.1538462), wk =   0.0028490
        k(   24) = (   0.0000000   0.2222222   0.2307692), wk =   0.0028490
        k(   25) = (   0.0000000   0.2222222   0.3076923), wk =   0.0028490
        k(   26) = (   0.0000000   0.2222222   0.3846154), wk =   0.0028490
        k(   27) = (   0.0000000   0.2222222   0.4615385), wk =   0.0028490
        k(   28) = (   0.0000000   0.2222222  -0.4615385), wk =   0.0028490
        k(   29) = (   0.0000000   0.2222222  -0.3846154), wk =   0.0028490
        k(   30) = (   0.0000000   0.2222222  -0.3076923), wk =   0.0028490
        k(   31) = (   0.0000000   0.2222222  -0.2307692), wk =   0.0028490
        k(   32) = (   0.0000000   0.2222222  -0.1538462), wk =   0.0028490
        k(   33) = (   0.0000000   0.2222222  -0.0769231), wk =   0.0028490
        k(   34) = (   0.0000000   0.3333333   0.0000000), wk =   0.0028490
        k(   35) = (   0.0000000   0.3333333   0.0769231), wk =   0.0028490
        k(   36) = (   0.0000000   0.3333333   0.1538462), wk =   0.0028490
        k(   37) = (   0.0000000   0.3333333   0.2307692), wk =   0.0028490
        k(   38) = (   0.0000000   0.3333333   0.3076923), wk =   0.0028490
        k(   39) = (   0.0000000   0.3333333   0.3846154), wk =   0.0028490
        k(   40) = (   0.0000000   0.3333333   0.4615385), wk =   0.0028490
        k(   41) = (   0.0000000   0.3333333  -0.4615385), wk =   0.0028490
        k(   42) = (   0.0000000   0.3333333  -0.3846154), wk =   0.0028490
        k(   43) = (   0.0000000   0.3333333  -0.3076923), wk =   0.0028490
        k(   44) = (   0.0000000   0.3333333  -0.2307692), wk =   0.0028490
        k(   45) = (   0.0000000   0.3333333  -0.1538462), wk =   0.0028490
        k(   46) = (   0.0000000   0.3333333  -0.0769231), wk =   0.0028490
        k(   47) = (   0.0000000   0.4444444   0.0000000), wk =   0.0028490
        k(   48) = (   0.0000000   0.4444444   0.0769231), wk =   0.0028490
        k(   49) = (   0.0000000   0.4444444   0.1538462), wk =   0.0028490
        k(   50) = (   0.0000000   0.4444444   0.2307692), wk =   0.0028490
        k(   51) = (   0.0000000   0.4444444   0.3076923), wk =   0.0028490
        k(   52) = (   0.0000000   0.4444444   0.3846154), wk =   0.0028490
        k(   53) = (   0.0000000   0.4444444   0.4615385), wk =   0.0028490
        k(   54) = (   0.0000000   0.4444444  -0.4615385), wk =   0.0028490
        k(   55) = (   0.0000000   0.4444444  -0.3846154), wk =   0.0028490
        k(   56) = (   0.0000000   0.4444444  -0.3076923), wk =   0.0028490
        k(   57) = (   0.0000000   0.4444444  -0.2307692), wk =   0.0028490
        k(   58) = (   0.0000000   0.4444444  -0.1538462), wk =   0.0028490
        k(   59) = (   0.0000000   0.4444444  -0.0769231), wk =   0.0028490
        k(   60) = (   0.1666667   0.0000000   0.0000000), wk =   0.0028490
[...]
        k(  338) = (   0.3333333  -0.3333333   0.1538462), wk =   0.0028490
        k(  339) = (   0.3333333  -0.3333333   0.0769231), wk =   0.0028490
        k(  340) = (   0.3333333  -0.4444444   0.0000000), wk =   0.0028490
        k(  341) = (   0.3333333  -0.4444444  -0.0769231), wk =   0.0028490
        k(  342) = (   0.3333333  -0.4444444  -0.1538462), wk =   0.0028490
        k(  343) = (   0.3333333  -0.4444444  -0.2307692), wk =   0.0028490
        k(  344) = (   0.3333333  -0.4444444  -0.3076923), wk =   0.0028490
        k(  345) = (   0.3333333  -0.4444444  -0.3846154), wk =   0.0028490
        k(  346) = (   0.3333333  -0.4444444  -0.4615385), wk =   0.0028490
        k(  347) = (   0.3333333  -0.4444444   0.4615385), wk =   0.0028490
        k(  348) = (   0.3333333  -0.4444444   0.3846154), wk =   0.0028490
        k(  349) = (   0.3333333  -0.4444444   0.3076923), wk =   0.0028490
        k(  350) = (   0.3333333  -0.4444444   0.2307692), wk =   0.0028490
        k(  351) = (   0.3333333  -0.4444444   0.1538462), wk =   0.0028490
        k(  352) = (   0.3333333  -0.4444444   0.0769231), wk =   0.0028490

     Initial potential from superposition of free atoms
     Check: negative starting charge=(component1):   -0.515464
     Check: negative starting charge=(component2):   -0.210157

     starting charge  191.96750, renormalised to  192.00000

     negative rho (up, down):  5.156E-01 2.102E-01
     Starting wfc are  204 randomized atomic wfcs

     Self-consistent Calculation

     iteration #  1     ecut=    45.00 Ry     beta=0.35
     Davidson diagonalization with overlap
     ethr =  1.00E-02,  avg # of iterations =  2.5

     negative rho (up, down):  4.642E-01 2.632E-01

     total energy              =   -1326.81065206 Ry
     Harris-Foulkes estimate   =   -1325.34956118 Ry
     estimated scf accuracy    <       2.14995553 Ry

     total magnetization       =     9.84 Bohr mag/cell
     absolute magnetization    =    11.88 Bohr mag/cell

[...]

     total energy              =   -1328.48095595 Ry
     Harris-Foulkes estimate   =   -1328.48095529 Ry
     estimated scf accuracy    <       0.00000119 Ry

[...]

     iteration # 17     ecut=    45.00 Ry     beta=0.35
     Davidson diagonalization with overlap
     ethr =  6.19E-10,  avg # of iterations =  3.0

     negative rho (up, down):  3.695E-01 3.695E-01

     Magnetic moment per site:
     atom:    1    charge:    9.0735    magn:    0.0001    constr:    0.0000
     atom:    2    charge:    9.0784    magn:    0.0001    constr:    0.0000
     atom:    3    charge:    9.0596    magn:    0.0002    constr:    0.0000
     atom:    4    charge:    9.0771    magn:    0.0002    constr:    0.0000
     atom:    5    charge:    9.0835    magn:    0.0001    constr:    0.0000
     atom:    6    charge:    9.0859    magn:    0.0001    constr:    0.0000
     atom:    7    charge:    9.0852    magn:    0.0001    constr:    0.0000
     atom:    8    charge:    9.0630    magn:    0.0002    constr:    0.0000
     atom:    9    charge:    9.0851    magn:    0.0000    constr:    0.0000
     atom:   10    charge:    9.0853    magn:    0.0001    constr:    0.0000
     atom:   11    charge:    9.0647    magn:    0.0002    constr:    0.0000
     atom:   12    charge:    9.0835    magn:    0.0000    constr:    0.0000
     atom:   13    charge:    1.7877    magn:   -0.0001    constr:    0.0000
     atom:   14    charge:    1.8019    magn:   -0.0001    constr:    0.0000
     atom:   15    charge:    1.7988    magn:   -0.0001    constr:    0.0000
     atom:   16    charge:    1.7859    magn:   -0.0001    constr:    0.0000
     atom:   17    charge:    1.8053    magn:   -0.0001    constr:    0.0000
     atom:   18    charge:    1.7735    magn:   -0.0001    constr:    0.0000
     atom:   19    charge:    1.8031    magn:   -0.0001    constr:    0.0000
     atom:   20    charge:    1.8011    magn:   -0.0001    constr:    0.0000
     atom:   21    charge:    1.8034    magn:   -0.0001    constr:    0.0000
     atom:   22    charge:    1.7896    magn:   -0.0001    constr:    0.0000
     atom:   23    charge:    1.7928    magn:   -0.0001    constr:    0.0000
     atom:   24    charge:    1.7928    magn:   -0.0001    constr:    0.0000

     End of self-consistent calculation

 ------ SPIN UP ------------

          k = 0.0000 0.0000 0.0000 ( 14633 PWs)   bands (ev):

   -35.1773 -35.1517 -35.1408 -35.1273 -35.1178 -35.1053 -35.1043 -35.0981
   -35.0885 -35.0862 -35.0806 -35.0602 -13.4420 -13.4200 -13.4137 -13.4066
   -13.3962 -13.3636 -13.3570 -13.3400 -13.3252 -13.3071 -13.3014 -13.2892
   -13.2822 -13.2581 -13.2412 -13.2105 -13.1980 -13.1945 -13.1892 -13.1843
   -13.1794 -13.1632 -13.1586 -13.1430 -13.1394 -13.1309 -13.1229 -13.1207
   -13.1051 -13.0968 -13.0827 -13.0790 -13.0702 -13.0402 -13.0321 -13.0043
     2.1867   3.2200   3.3889   3.5478   4.0885   4.2281   6.0907   6.1462
     6.2319   6.3385   6.7591   7.5276   8.8608   8.9275   8.9815   9.1572
     9.2475   9.8450   9.9415   9.9614  10.0331  10.0787  10.1294  10.2461
    10.7647  10.8069  10.8266  10.8634  10.8712  10.8983  10.9773  11.0322
    11.0753  11.2154  11.3051  11.3740  11.6913  11.7837  12.0232  12.0403
    12.1603  12.2230  12.3647  12.5226  12.5541  12.8650  13.1702  14.0562
    14.1005  14.1080  14.5100  14.6814  14.7391  14.9418  15.0918  15.3676
    15.3920  15.4987  15.5610  15.6266  15.6412  15.6827  15.8496  15.9008
    16.0042  16.0110  16.0328

     occupation numbers
     1.0000   1.0000   1.0000   1.0000   1.0000   1.0000   1.0000   1.0000
     1.0000   1.0000   1.0000   1.0000   1.0000   1.0000   1.0000   1.0000
     1.0000   1.0000   1.0000   1.0000   1.0000   1.0000   1.0000   1.0000
     1.0000   1.0000   1.0000   1.0000   1.0000   1.0000   1.0000   1.0000
     1.0000   1.0000   1.0000   1.0000   1.0000   1.0000   1.0000   1.0000
     1.0000   1.0000   1.0000   1.0000   1.0000   1.0000   1.0000   1.0000
     1.0000   1.0000   1.0000   1.0000   1.0000   1.0000   1.0000   1.0000
     1.0000   1.0000   1.0000   1.0000   1.0000   1.0000   1.0000   1.0000
     1.0000   1.0000   1.0000   1.0000   1.0000   1.0000   1.0000   1.0000
     1.0000   1.0000   1.0000   1.0000   1.0000   1.0000   1.0000   1.0000
     1.0000   1.0000   1.0000   1.0000   1.0000   1.0000   1.0000   1.0000
     1.0000   1.0000   1.0000   1.0000   1.0000   1.0049   1.0770   0.0018
     0.0008   0.0007   0.0000   0.0000   0.0000   0.0000   0.0000   0.0000
     0.0000   0.0000   0.0000   0.0000   0.0000   0.0000   0.0000   0.0000
     0.0000   0.0000   0.0000

[...]

          k =-0.5000 0.0000 0.0000 ( 14614 PWs)   bands (ev):

[...]

 ------ SPIN DOWN ----------

[...]

          k =-0.5000 0.7737-0.1633 ( 14638 PWs)   bands (ev):

[...]

          k = 0.3333-0.7737 0.1633 ( 14652 PWs)   bands (ev):

   -35.1742 -35.1486 -35.1411 -35.1268 -35.1218 -35.1067 -35.1014 -35.0959
   -35.0910 -35.0834 -35.0796 -35.0603 -13.4179 -13.3886 -13.3797 -13.3748
   -13.3677 -13.3530 -13.3482 -13.3388 -13.3309 -13.3262 -13.3107 -13.2999
   -13.2530 -13.2494 -13.2417 -13.2338 -13.2267 -13.2217 -13.2131 -13.2007
   -13.1911 -13.1842 -13.1741 -13.1697 -13.1501 -13.1419 -13.1311 -13.1214
   -13.1022 -13.0912 -13.0804 -13.0688 -13.0445 -13.0294 -13.0203 -13.0023
     2.8102   2.9020   3.1922   3.2826   4.4640   4.4908   5.2966   5.3533
     6.8774   6.9597   7.0509   7.3817   8.6866   8.9716   9.0504   9.3045
     9.3822   9.5512   9.7561   9.8601   9.9272  10.0198  10.0702  10.1116
    10.4204  10.6723  10.7914  10.8326  10.9067  11.0313  11.0447  11.1085
    11.1433  11.3429  11.3856  11.4271  11.8228  11.8761  12.0914  12.1303
    12.1955  12.2346  12.6508  12.7009  12.7705  12.9212  13.0784  13.4138
    13.6676  13.7316  14.3890  14.5954  14.7446  14.9117  15.0518  15.1351
    15.2437  15.3294  15.3987  15.5513  15.6313  15.7013  15.8983  15.9600
    15.9973  16.0713  16.2202

     occupation numbers
     1.0000   1.0000   1.0000   1.0000   1.0000   1.0000   1.0000   1.0000
     1.0000   1.0000   1.0000   1.0000   1.0000   1.0000   1.0000   1.0000
     1.0000   1.0000   1.0000   1.0000   1.0000   1.0000   1.0000   1.0000
     1.0000   1.0000   1.0000   1.0000   1.0000   1.0000   1.0000   1.0000
     1.0000   1.0000   1.0000   1.0000   1.0000   1.0000   1.0000   1.0000
     1.0000   1.0000   1.0000   1.0000   1.0000   1.0000   1.0000   1.0000
     1.0000   1.0000   1.0000   1.0000   1.0000   1.0000   1.0000   1.0000
     1.0000   1.0000   1.0000   1.0000   1.0000   1.0000   1.0000   1.0000
     1.0000   1.0000   1.0000   1.0000   1.0000   1.0000   1.0000   1.0000
     1.0000   1.0000   1.0000   1.0000   1.0000   1.0000   1.0000   1.0000
     1.0000   1.0000   1.0000   1.0000   1.0000   1.0000   1.0000   1.0000
     1.0000   1.0000   1.0001   1.0003   1.0011   1.0102   1.0478   0.8922
     0.2542   0.1467   0.0000   0.0000   0.0000   0.0000   0.0000   0.0000
     0.0000   0.0000   0.0000   0.0000   0.0000   0.0000   0.0000   0.0000
     0.0000   0.0000   0.0000

     the Fermi energy is    13.6030 ev

!    total energy              =   -1328.48095636 Ry
     Harris-Foulkes estimate   =   -1328.48095622 Ry
     estimated scf accuracy    <       0.00000024 Ry

     The total energy is the sum of the following terms:

     one-electron contribution =    -198.61731809 Ry
     hartree contribution      =     186.12842531 Ry
     xc contribution           =    -289.11017834 Ry
     ewald contribution        =   -1026.88514288 Ry
     smearing contrib. (-TS)   =       0.00325764 Ry

     total magnetization       =     0.00 Bohr mag/cell
     absolute magnetization    =     0.01 Bohr mag/cell

     convergence has been achieved in  17 iterations

     Writing output data file aiida.save

     General routines

     Parallel routines

   This run was terminated on:   9:36:20  21Apr2017

   JOB DONE.