     Program PWSCF v.6.1 (svn rev. 13369) starts on 20Apr2017 at 16:56:19

     Current dimensions of program PWSCF are:
     Max number of different atomic species (ntypx) = 10
     Max number of k-points (npk) =  40000
     Max angular momentum in pseudopotentials (lmaxx) =  3

     Subspace diagonalization in iterative solution of the eigenvalue problem:
     one sub-group per band group will be used

     bravais-lattice index     =            0
     lattice parameter (alat)  =      21.3697  a.u.
     unit-cell volume          =    2870.2376 (a.u.)^3
     number of atoms/cell      =           24
     number of atomic types    =            2
     number of electrons       =       192.00
     number of Kohn-Sham states=          115
     kinetic-energy cutoff     =      45.0000  Ry
     charge density cutoff     =     360.0000  Ry
     convergence threshold     =      2.4E-07
     mixing beta               =       0.3500
     number of iterations used =            8  plain     mixing
     Exchange-correlation      = SLA  PW   PBE  PBE ( 1  4  3  4 0 0)

     celldm(1)=  21.369685  celldm(2)=   0.000000  celldm(3)=   0.000000
     celldm(4)=   0.000000  celldm(5)=   0.000000  celldm(6)=   0.000000

     crystal axes: (cart. coord. in units of alat)
               a(1) = (   1.000000   0.000000   0.000000 )
               a(2) = (   0.000000   0.624362   0.236591 )
               a(3) = (   0.000000   0.000000   0.471071 )

     reciprocal axes: (cart. coord. in units 2 pi/alat)
               b(1) = (  1.000000  0.000000  0.000000 )
               b(2) = (  0.000000  1.601634  0.000000 )
               b(3) = (  0.000000 -0.804405  2.122821 )

     PseudoPot. # 1 for Si read from file:
     ./pseudo/Si.pbe-n-rrkjus_psl.1.0.0.UPF
     MD5 check sum: d928fff27e2cf23ab01de9cd48acd62a
     Pseudo is Ultrasoft + core correction, Zval =  4.0
     Generated using "atomic" code by A. Dal Corso  v.5.1
     Using radial grid of 1141 points,  6 beta functions with:
                l(1) =   0
                l(2) =   0
                l(3) =   1
                l(4) =   1
                l(5) =   2
                l(6) =   2
     Q(r) pseudized with 0 coefficients

     PseudoPot. # 2 for Zr read from file:
     ./pseudo/Zr_pbe_v1.uspp.F.UPF
     MD5 check sum: 5db81b1e868ab7776c4564c113de050b
     Pseudo is Ultrasoft + core correction, Zval = 12.0
     Generated by new atomic code, or converted to UPF format
     Using radial grid of  887 points,  6 beta functions with:
                l(1) =   0
                l(2) =   0
                l(3) =   1
                l(4) =   1
                l(5) =   2
                l(6) =   2
     Q(r) pseudized with  6 coefficients,  rinner =    1.200   1.200   1.200
                                                       1.200   1.200

     atomic species   valence    mass     pseudopotential
        Si             4.00    28.08550     Si( 1.00)
        Zr            12.00    91.22400     Zr( 1.00)

     Starting magnetic structure
     atomic species   magnetization
        Si           0.000
        Zr           0.417

     No symmetry found

                                    s                        frac. trans.

      isym =  1     identity

 cryst.   s( 1) = (     1          0          0      )
                  (     0          1          0      )
                  (     0          0          1      )

 cart.    s( 1) = (  1.0000000  0.0000000  0.0000000 )
                  (  0.0000000  1.0000000  0.0000000 )
                  (  0.0000000 -0.0000000  1.0000000 )

   Cartesian axes

     site n.     atom                  positions (alat units)
         1           Zr  tau(   1) = (   0.0849136   0.2617535   0.2332711  )
         2           Zr  tau(   2) = (   0.0826137   0.5816343   0.3496644  )
         3           Zr  tau(   3) = (   0.4177076   0.2652574   0.2447223  )
         4           Zr  tau(   4) = (   0.4195508   0.5854738   0.3567491  )
         5           Zr  tau(   5) = (   0.7490816   0.2714019   0.2432517  )
         6           Zr  tau(   6) = (   0.7531469   0.5845841   0.3592668  )
         7           Zr  tau(   7) = (   0.2456702   0.0436282   0.3461261  )
         8           Zr  tau(   8) = (   0.2541896   0.3521749   0.4677362  )
         9           Zr  tau(   9) = (   0.5872608   0.0433430   0.3459169  )
        10           Zr  tau(  10) = (   0.5763432   0.3565062   0.4693231  )
        11           Zr  tau(  11) = (   0.9223878   0.0494515   0.3509161  )
        12           Zr  tau(  12) = (   0.9187433   0.3618918   0.4749010  )
        13           Si  tau(  13) = (   0.2475696   0.1272710   0.1187276  )
        14           Si  tau(  14) = (   0.2501174   0.4481364   0.2364789  )
        15           Si  tau(  15) = (   0.5845975   0.1311824   0.1168144  )
        16           Si  tau(  16) = (   0.5880199   0.4482199   0.2391529  )
        17           Si  tau(  17) = (   0.9108569   0.1304446   0.1198963  )
        18           Si  tau(  18) = (   0.9144195   0.4371156   0.2413626  )
        19           Si  tau(  19) = (   0.0764592   0.1822462   0.4655981  )
        20           Si  tau(  20) = (   0.0886257   0.4908126   0.5881735  )
        21           Si  tau(  21) = (   0.4197308   0.1822714   0.4594581  )
        22           Si  tau(  22) = (   0.4125918   0.4976556   0.5869724  )
        23           Si  tau(  23) = (   0.7479428   0.1873324   0.4659956  )
        24           Si  tau(  24) = (   0.7441195   0.4928691   0.5799690  )

   Crystallographic axes

     site n.     atom                  positions (cryst. coord.)
         1           Zr  tau(   1) = (  0.0849136  0.4192332  0.2846370  )
         2           Zr  tau(   2) = (  0.0826137  0.9315652  0.2744055  )
         3           Zr  tau(   3) = (  0.4177076  0.4248452  0.3061272  )
         4           Zr  tau(   4) = (  0.4195508  0.9377145  0.2863564  )
         5           Zr  tau(   5) = (  0.7490816  0.4346864  0.2980629  )
         6           Zr  tau(   6) = (  0.7531469  0.9362897  0.2924167  )
         7           Zr  tau(   7) = (  0.2456702  0.0698764  0.6996688  )
         8           Zr  tau(   8) = (  0.2541896  0.5640551  0.7096290  )
         9           Zr  tau(   9) = (  0.5872608  0.0694196  0.6994543  )
        10           Zr  tau(  10) = (  0.5763432  0.5709923  0.7095134  )
        11           Zr  tau(  11) = (  0.9223878  0.0792032  0.7051529  )
        12           Zr  tau(  12) = (  0.9187433  0.5796181  0.7170221  )
        13           Si  tau(  13) = (  0.2475696  0.2038415  0.1496600  )
        14           Si  tau(  14) = (  0.2501174  0.7177503  0.1415194  )
        15           Si  tau(  15) = (  0.5845975  0.2101062  0.1424524  )
        16           Si  tau(  16) = (  0.5880199  0.7178842  0.1471284  )
        17           Si  tau(  17) = (  0.9108569  0.2089244  0.1495881  )
        18           Si  tau(  18) = (  0.9144195  0.7000990  0.1607518  )
        19           Si  tau(  19) = (  0.0764592  0.2918917  0.8417816  )
        20           Si  tau(  20) = (  0.0886257  0.7861020  0.8537748  )
        21           Si  tau(  21) = (  0.4197308  0.2919321  0.8287272  )
        22           Si  tau(  22) = (  0.4125918  0.7970621  0.8457206  )
        23           Si  tau(  23) = (  0.7479428  0.3000379  0.8385339  )
        24           Si  tau(  24) = (  0.7441195  0.7893958  0.8347040  )

     number of k points=   352  Marzari-Vanderbilt smearing, width (Ry)=  0.0200
                       cart. coord. in units 2pi/alat
        k(    1) = (   0.0000000   0.0000000   0.0000000), wk =   0.0014245
        k(    2) = (   0.0000000  -0.0618773   0.1632939), wk =   0.0028490
        k(    3) = (   0.0000000  -0.1237546   0.3265878), wk =   0.0028490
        k(    4) = (   0.0000000  -0.1856318   0.4898817), wk =   0.0028490
        k(    5) = (   0.0000000  -0.2475091   0.6531756), wk =   0.0028490
        k(    6) = (   0.0000000  -0.3093864   0.8164694), wk =   0.0028490
        k(    7) = (   0.0000000  -0.3712637   0.9797633), wk =   0.0028490
        k(    8) = (   0.0000000   0.1779593   0.0000000), wk =   0.0028490
        k(    9) = (   0.0000000   0.1160820   0.1632939), wk =   0.0028490
        k(   10) = (   0.0000000   0.0542047   0.3265878), wk =   0.0028490
        k(   11) = (   0.0000000  -0.0076725   0.4898817), wk =   0.0028490
        k(   12) = (   0.0000000  -0.0695498   0.6531756), wk =   0.0028490
        k(   13) = (   0.0000000  -0.1314271   0.8164694), wk =   0.0028490
        k(   14) = (   0.0000000  -0.1933044   0.9797633), wk =   0.0028490
        k(   15) = (   0.0000000   0.5492230  -0.9797633), wk =   0.0028490
        k(   16) = (   0.0000000   0.4873457  -0.8164694), wk =   0.0028490
        k(   17) = (   0.0000000   0.4254684  -0.6531756), wk =   0.0028490
        k(   18) = (   0.0000000   0.3635911  -0.4898817), wk =   0.0028490
        k(   19) = (   0.0000000   0.3017139  -0.3265878), wk =   0.0028490
        k(   20) = (   0.0000000   0.2398366  -0.1632939), wk =   0.0028490
        k(   21) = (   0.0000000   0.3559186   0.0000000), wk =   0.0028490
        k(   22) = (   0.0000000   0.2940413   0.1632939), wk =   0.0028490
        k(   23) = (   0.0000000   0.2321641   0.3265878), wk =   0.0028490
        k(   24) = (   0.0000000   0.1702868   0.4898817), wk =   0.0028490
        k(   25) = (   0.0000000   0.1084095   0.6531756), wk =   0.0028490
        k(   26) = (   0.0000000   0.0465322   0.8164694), wk =   0.0028490
        k(   27) = (   0.0000000  -0.0153451   0.9797633), wk =   0.0028490
        k(   28) = (   0.0000000   0.7271823  -0.9797633), wk =   0.0028490
        k(   29) = (   0.0000000   0.6653050  -0.8164694), wk =   0.0028490
        k(   30) = (   0.0000000   0.6034277  -0.6531756), wk =   0.0028490
        k(   31) = (   0.0000000   0.5415504  -0.4898817), wk =   0.0028490
        k(   32) = (   0.0000000   0.4796732  -0.3265878), wk =   0.0028490
        k(   33) = (   0.0000000   0.4177959  -0.1632939), wk =   0.0028490
        k(   34) = (   0.0000000   0.5338779   0.0000000), wk =   0.0028490
        k(   35) = (   0.0000000   0.4720006   0.1632939), wk =   0.0028490
        k(   36) = (   0.0000000   0.4101234   0.3265878), wk =   0.0028490
        k(   37) = (   0.0000000   0.3482461   0.4898817), wk =   0.0028490
        k(   38) = (   0.0000000   0.2863688   0.6531756), wk =   0.0028490
        k(   39) = (   0.0000000   0.2244915   0.8164694), wk =   0.0028490
        k(   40) = (   0.0000000   0.1626142   0.9797633), wk =   0.0028490
        k(   41) = (   0.0000000   0.9051416  -0.9797633), wk =   0.0028490
        k(   42) = (   0.0000000   0.8432643  -0.8164694), wk =   0.0028490
        k(   43) = (   0.0000000   0.7813870  -0.6531756), wk =   0.0028490
        k(   44) = (   0.0000000   0.7195097  -0.4898817), wk =   0.0028490
        k(   45) = (   0.0000000   0.6576325  -0.3265878), wk =   0.0028490
        k(   46) = (   0.0000000   0.5957552  -0.1632939), wk =   0.0028490
        k(   47) = (   0.0000000   0.7118372   0.0000000), wk =   0.0028490
        k(   48) = (   0.0000000   0.6499599   0.1632939), wk =   0.0028490
        k(   49) = (   0.0000000   0.5880827   0.3265878), wk =   0.0028490
        k(   50) = (   0.0000000   0.5262054   0.4898817), wk =   0.0028490
        k(   51) = (   0.0000000   0.4643281   0.6531756), wk =   0.0028490
        k(   52) = (   0.0000000   0.4024508   0.8164694), wk =   0.0028490
        k(   53) = (   0.0000000   0.3405735   0.9797633), wk =   0.0028490
        k(   54) = (   0.0000000   1.0831009  -0.9797633), wk =   0.0028490
        k(   55) = (   0.0000000   1.0212236  -0.8164694), wk =   0.0028490
        k(   56) = (   0.0000000   0.9593463  -0.6531756), wk =   0.0028490
        k(   57) = (   0.0000000   0.8974690  -0.4898817), wk =   0.0028490
        k(   58) = (   0.0000000   0.8355918  -0.3265878), wk =   0.0028490
        k(   59) = (   0.0000000   0.7737145  -0.1632939), wk =   0.0028490
        k(   60) = (   0.1666667   0.0000000   0.0000000), wk =   0.0028490
[...]
        k(  338) = (   0.3333333  -0.6576325   0.3265878), wk =   0.0028490
        k(  339) = (   0.3333333  -0.5957552   0.1632939), wk =   0.0028490
        k(  340) = (   0.3333333  -0.7118372   0.0000000), wk =   0.0028490
        k(  341) = (   0.3333333  -0.6499599  -0.1632939), wk =   0.0028490
        k(  342) = (   0.3333333  -0.5880827  -0.3265878), wk =   0.0028490
        k(  343) = (   0.3333333  -0.5262054  -0.4898817), wk =   0.0028490
        k(  344) = (   0.3333333  -0.4643281  -0.6531756), wk =   0.0028490
        k(  345) = (   0.3333333  -0.4024508  -0.8164694), wk =   0.0028490
        k(  346) = (   0.3333333  -0.3405735  -0.9797633), wk =   0.0028490
        k(  347) = (   0.3333333  -1.0831009   0.9797633), wk =   0.0028490
        k(  348) = (   0.3333333  -1.0212236   0.8164694), wk =   0.0028490
        k(  349) = (   0.3333333  -0.9593463   0.6531756), wk =   0.0028490
        k(  350) = (   0.3333333  -0.8974690   0.4898817), wk =   0.0028490
        k(  351) = (   0.3333333  -0.8355918   0.3265878), wk =   0.0028490
        k(  352) = (   0.3333333  -0.7737145   0.1632939), wk =   0.0028490

                       cryst. coord.
        k(    1) = (   0.0000000   0.0000000   0.0000000), wk =   0.0014245
        k(    2) = (   0.0000000   0.0000000   0.0769231), wk =   0.0028490
        k(    3) = (   0.0000000   0.0000000   0.1538462), wk =   0.0028490
        k(    4) = (   0.0000000   0.0000000   0.2307692), wk =   0.0028490
        k(    5) = (   0.0000000   0.0000000   0.3076923), wk =   0.0028490
        k(    6) = (   0.0000000   0.0000000   0.3846154), wk =   0.0028490
        k(    7) = (   0.0000000   0.0000000   0.4615385), wk =   0.0028490
        k(    8) = (   0.0000000   0.1111111   0.0000000), wk =   0.0028490
        k(    9) = (   0.0000000   0.1111111   0.0769231), wk =   0.0028490
        k(   10) = (   0.0000000   0.1111111   0.1538462), wk =   0.0028490
        k(   11) = (   0.0000000   0.1111111   0.2307692), wk =   0.0028490
        k(   12) = (   0.0000000   0.1111111   0.3076923), wk =   0.0028490
        k(   13) = (   0.0000000   0.1111111   0.3846154), wk =   0.0028490
        k(   14) = (   0.0000000   0.1111111   0.4615385), wk =   0.0028490
        k(   15) = (   0.0000000   0.1111111  -0.4615385), wk =   0.0028490
        k(   16) = (   0.0000000   0.1111111  -0.3846154), wk =   0.0028490
        k(   17) = (   0.0000000   0.1111111  -0.3076923), wk =   0.0028490
        k(   18) = (   0.0000000   0.1111111  -0.2307692), wk =   0.0028490
        k(   19) = (   0.0000000   0.1111111  -0.1538462), wk =   0.0028490
        k(   20) = (   0.0000000   0.1111111  -0.0769231), wk =   0.0028490
        k(   21) = (   0.0000000   0.2222222   0.0000000), wk =   0.0028490
        k(   22) = (   0.0000000   0.2222222   0.0769231), wk =   0.0028490
        k(   23) = (   0.0000000   0.2222222   0.1538462), wk =   0.0028490
        k(   24) = (   0.0000000   0.2222222   0.2307692), wk =   0.0028490
        k(   25) = (   0.0000000   0.2222222   0.3076923), wk =   0.0028490
        k(   26) = (   0.0000000   0.2222222   0.3846154), wk =   0.0028490
        k(   27) = (   0.0000000   0.2222222   0.4615385), wk =   0.0028490
        k(   28) = (   0.0000000   0.2222222  -0.4615385), wk =   0.0028490
        k(   29) = (   0.0000000   0.2222222  -0.3846154), wk =   0.0028490
        k(   30) = (   0.0000000   0.2222222  -0.3076923), wk =   0.0028490
        k(   31) = (   0.0000000   0.2222222  -0.2307692), wk =   0.0028490
        k(   32) = (   0.0000000   0.2222222  -0.1538462), wk =   0.0028490
        k(   33) = (   0.0000000   0.2222222  -0.0769231), wk =   0.0028490
        k(   34) = (   0.0000000   0.3333333   0.0000000), wk =   0.0028490
        k(   35) = (   0.0000000   0.3333333   0.0769231), wk =   0.0028490
        k(   36) = (   0.0000000   0.3333333   0.1538462), wk =   0.0028490
        k(   37) = (   0.0000000   0.3333333   0.2307692), wk =   0.0028490
        k(   38) = (   0.0000000   0.3333333   0.3076923), wk =   0.0028490
        k(   39) = (   0.0000000   0.3333333   0.3846154), wk =   0.0028490
        k(   40) = (   0.0000000   0.3333333   0.4615385), wk =   0.0028490
        k(   41) = (   0.0000000   0.3333333  -0.4615385), wk =   0.0028490
        k(   42) = (   0.0000000   0.3333333  -0.3846154), wk =   0.0028490
        k(   43) = (   0.0000000   0.3333333  -0.3076923), wk =   0.0028490
        k(   44) = (   0.0000000   0.3333333  -0.2307692), wk =   0.0028490
        k(   45) = (   0.0000000   0.3333333  -0.1538462), wk =   0.0028490
        k(   46) = (   0.0000000   0.3333333  -0.0769231), wk =   0.0028490
        k(   47) = (   0.0000000   0.4444444   0.0000000), wk =   0.0028490
        k(   48) = (   0.0000000   0.4444444   0.0769231), wk =   0.0028490
        k(   49) = (   0.0000000   0.4444444   0.1538462), wk =   0.0028490
        k(   50) = (   0.0000000   0.4444444   0.2307692), wk =   0.0028490
        k(   51) = (   0.0000000   0.4444444   0.3076923), wk =   0.0028490
        k(   52) = (   0.0000000   0.4444444   0.3846154), wk =   0.0028490
        k(   53) = (   0.0000000   0.4444444   0.4615385), wk =   0.0028490
        k(   54) = (   0.0000000   0.4444444  -0.4615385), wk =   0.0028490
        k(   55) = (   0.0000000   0.4444444  -0.3846154), wk =   0.0028490
        k(   56) = (   0.0000000   0.4444444  -0.3076923), wk =   0.0028490
        k(   57) = (   0.0000000   0.4444444  -0.2307692), wk =   0.0028490
        k(   58) = (   0.0000000   0.4444444  -0.1538462), wk =   0.0028490
        k(   59) = (   0.0000000   0.4444444  -0.0769231), wk =   0.0028490
        k(   60) = (   0.1666667   0.0000000   0.0000000), wk =   0.0028490
[...]
        k(  338) = (   0.3333333  -0.3333333   0.1538462), wk =   0.0028490
        k(  339) = (   0.3333333  -0.3333333   0.0769231), wk =   0.0028490
        k(  340) = (   0.3333333  -0.4444444   0.0000000), wk =   0.0028490
        k(  341) = (   0.3333333  -0.4444444  -0.0769231), wk =   0.0028490
        k(  342) = (   0.3333333  -0.4444444  -0.1538462), wk =   0.0028490
        k(  343) = (   0.3333333  -0.4444444  -0.2307692), wk =   0.0028490
        k(  344) = (   0.3333333  -0.4444444  -0.3076923), wk =   0.0028490
        k(  345) = (   0.3333333  -0.4444444  -0.3846154), wk =   0.0028490
        k(  346) = (   0.3333333  -0.4444444  -0.4615385), wk =   0.0028490
        k(  347) = (   0.3333333  -0.4444444   0.4615385), wk =   0.0028490
        k(  348) = (   0.3333333  -0.4444444   0.3846154), wk =   0.0028490
        k(  349) = (   0.3333333  -0.4444444   0.3076923), wk =   0.0028490
        k(  350) = (   0.3333333  -0.4444444   0.2307692), wk =   0.0028490
        k(  351) = (   0.3333333  -0.4444444   0.1538462), wk =   0.0028490
        k(  352) = (   0.3333333  -0.4444444   0.0769231), wk =   0.0028490

     Initial potential from superposition of free atoms
     Check: negative starting charge=(component1):   -0.515464
     Check: negative starting charge=(component2):   -0.210157

     starting charge  191.96750, renormalised to  192.00000

     negative rho (up, down):  5.156E-01 2.102E-01
     Starting wfc are  204 randomized atomic wfcs

     Self-consistent Calculation

     iteration #  1     ecut=    45.00 Ry     beta=0.35
     Davidson diagonalization with overlap
     ethr =  1.00E-02,  avg # of iterations =  2.5

     negative rho (up, down):  4.642E-01 2.632E-01

     total energy              =   -1326.81062488 Ry
     Harris-Foulkes estimate   =   -1325.34955648 Ry
     estimated scf accuracy    <       2.14997550 Ry

     total magnetization       =     9.84 Bohr mag/cell
     absolute magnetization    =    11.88 Bohr mag/cell

[...]

     total energy              =   -1328.48095652 Ry
     Harris-Foulkes estimate   =   -1328.48095641 Ry
     estimated scf accuracy    <       0.00000025 Ry

[...]

     iteration # 19     ecut=    45.00 Ry     beta=0.35
     Davidson diagonalization with overlap
     ethr =  1.28E-10,  avg # of iterations =  3.0

     negative rho (up, down):  3.695E-01 3.695E-01

     Magnetic moment per site:
     atom:    1    charge:    9.0735    magn:    0.0000    constr:    0.0000
     atom:    2    charge:    9.0783    magn:    0.0000    constr:    0.0000
     atom:    3    charge:    9.0595    magn:    0.0001    constr:    0.0000
     atom:    4    charge:    9.0772    magn:    0.0001    constr:    0.0000
     atom:    5    charge:    9.0834    magn:    0.0001    constr:    0.0000
     atom:    6    charge:    9.0857    magn:    0.0000    constr:    0.0000
     atom:    7    charge:    9.0853    magn:    0.0000    constr:    0.0000
     atom:    8    charge:    9.0630    magn:    0.0001    constr:    0.0000
     atom:    9    charge:    9.0853    magn:    0.0000    constr:    0.0000
     atom:   10    charge:    9.0853    magn:    0.0000    constr:    0.0000
     atom:   11    charge:    9.0647    magn:    0.0001    constr:    0.0000
     atom:   12    charge:    9.0835    magn:   -0.0000    constr:    0.0000
     atom:   13    charge:    1.7877    magn:   -0.0000    constr:    0.0000
     atom:   14    charge:    1.8020    magn:   -0.0000    constr:    0.0000
     atom:   15    charge:    1.7988    magn:   -0.0000    constr:    0.0000
     atom:   16    charge:    1.7859    magn:   -0.0000    constr:    0.0000
     atom:   17    charge:    1.8053    magn:   -0.0000    constr:    0.0000
     atom:   18    charge:    1.7735    magn:   -0.0000    constr:    0.0000
     atom:   19    charge:    1.8031    magn:   -0.0000    constr:    0.0000
     atom:   20    charge:    1.8012    magn:   -0.0000    constr:    0.0000
     atom:   21    charge:    1.8034    magn:   -0.0000    constr:    0.0000
     atom:   22    charge:    1.7896    magn:   -0.0000    constr:    0.0000
     atom:   23    charge:    1.7929    magn:   -0.0000    constr:    0.0000
     atom:   24    charge:    1.7928    magn:   -0.0000    constr:    0.0000

     End of self-consistent calculation

 ------ SPIN UP ------------

          k = 0.0000 0.0000 0.0000 ( 14633 PWs)   bands (ev):

   -35.1770 -35.1513 -35.1405 -35.1270 -35.1177 -35.1050 -35.1040 -35.0977
   -35.0881 -35.0860 -35.0803 -35.0602 -13.4418 -13.4198 -13.4135 -13.4063
   -13.3959 -13.3633 -13.3567 -13.3398 -13.3251 -13.3069 -13.3012 -13.2890
   -13.2820 -13.2578 -13.2411 -13.2101 -13.1977 -13.1942 -13.1891 -13.1840
   -13.1792 -13.1631 -13.1583 -13.1427 -13.1392 -13.1307 -13.1227 -13.1205
   -13.1049 -13.0966 -13.0824 -13.0788 -13.0700 -13.0400 -13.0320 -13.0041
     2.1865   3.2198   3.3888   3.5476   4.0884   4.2279   6.0906   6.1460
     6.2317   6.3384   6.7588   7.5275   8.8607   8.9273   8.9814   9.1572
     9.2474   9.8449   9.9414   9.9613  10.0330  10.0786  10.1293  10.2461
    10.7645  10.8067  10.8266  10.8633  10.8711  10.8982  10.9773  11.0322
    11.0752  11.2153  11.3051  11.3739  11.6913  11.7837  12.0233  12.0405
    12.1604  12.2231  12.3649  12.5228  12.5543  12.8650  13.1704  14.0563
    14.1007  14.1082  14.5101  14.6815  14.7390  14.9418  15.0918  15.3676
    15.3920  15.4987  15.5610  15.6267  15.6412  15.6827  15.8495  15.9007
    16.0042  16.0112  16.0327

     occupation numbers
     1.0000   1.0000   1.0000   1.0000   1.0000   1.0000   1.0000   1.0000
     1.0000   1.0000   1.0000   1.0000   1.0000   1.0000   1.0000   1.0000
     1.0000   1.0000   1.0000   1.0000   1.0000   1.0000   1.0000   1.0000
     1.0000   1.0000   1.0000   1.0000   1.0000   1.0000   1.0000   1.0000
     1.0000   1.0000   1.0000   1.0000   1.0000   1.0000   1.0000   1.0000
     1.0000   1.0000   1.0000   1.0000   1.0000   1.0000   1.0000   1.0000
     1.0000   1.0000   1.0000   1.0000   1.0000   1.0000   1.0000   1.0000
     1.0000   1.0000   1.0000   1.0000   1.0000   1.0000   1.0000   1.0000
     1.0000   1.0000   1.0000   1.0000   1.0000   1.0000   1.0000   1.0000
     1.0000   1.0000   1.0000   1.0000   1.0000   1.0000   1.0000   1.0000
     1.0000   1.0000   1.0000   1.0000   1.0000   1.0000   1.0000   1.0000
     1.0000   1.0000   1.0000   1.0000   1.0000   1.0049   1.0771   0.0018
     0.0008   0.0007   0.0000   0.0000   0.0000   0.0000   0.0000   0.0000
     0.0000   0.0000   0.0000   0.0000   0.0000   0.0000   0.0000   0.0000
     0.0000   0.0000   0.0000

[...]

          k =-0.5000 0.0000 0.0000 ( 14614 PWs)   bands (ev):

[...]

 ------ SPIN DOWN ----------

[...]

          k =-0.5000 0.7737-0.1633 ( 14638 PWs)   bands (ev):

[...]

          k = 0.3333-0.7737 0.1633 ( 14652 PWs)   bands (ev):

   -35.1743 -35.1486 -35.1413 -35.1270 -35.1220 -35.1068 -35.1016 -35.0959
   -35.0910 -35.0835 -35.0796 -35.0606 -13.4181 -13.3887 -13.3798 -13.3749
   -13.3678 -13.3530 -13.3484 -13.3388 -13.3310 -13.3263 -13.3108 -13.3000
   -13.2531 -13.2495 -13.2418 -13.2339 -13.2268 -13.2218 -13.2131 -13.2008
   -13.1911 -13.1843 -13.1742 -13.1698 -13.1502 -13.1419 -13.1311 -13.1215
   -13.1023 -13.0913 -13.0805 -13.0689 -13.0447 -13.0295 -13.0204 -13.0025
     2.8102   2.9021   3.1924   3.2827   4.4641   4.4908   5.2967   5.3534
     6.8775   6.9599   7.0510   7.3819   8.6866   8.9717   9.0504   9.3045
     9.3823   9.5513   9.7562   9.8602   9.9273  10.0199  10.0703  10.1116
    10.4204  10.6723  10.7914  10.8327  10.9067  11.0314  11.0448  11.1086
    11.1434  11.3429  11.3858  11.4271  11.8228  11.8762  12.0913  12.1303
    12.1954  12.2346  12.6507  12.7008  12.7704  12.9211  13.0783  13.4137
    13.6675  13.7316  14.3890  14.5954  14.7446  14.9118  15.0519  15.1352
    15.2437  15.3294  15.3988  15.5514  15.6313  15.7013  15.8983  15.9600
    15.9973  16.0713  16.2202

     occupation numbers
     1.0000   1.0000   1.0000   1.0000   1.0000   1.0000   1.0000   1.0000
     1.0000   1.0000   1.0000   1.0000   1.0000   1.0000   1.0000   1.0000
     1.0000   1.0000   1.0000   1.0000   1.0000   1.0000   1.0000   1.0000
     1.0000   1.0000   1.0000   1.0000   1.0000   1.0000   1.0000   1.0000
     1.0000   1.0000   1.0000   1.0000   1.0000   1.0000   1.0000   1.0000
     1.0000   1.0000   1.0000   1.0000   1.0000   1.0000   1.0000   1.0000
     1.0000   1.0000   1.0000   1.0000   1.0000   1.0000   1.0000   1.0000
     1.0000   1.0000   1.0000   1.0000   1.0000   1.0000   1.0000   1.0000
     1.0000   1.0000   1.0000   1.0000   1.0000   1.0000   1.0000   1.0000
     1.0000   1.0000   1.0000   1.0000   1.0000   1.0000   1.0000   1.0000
     1.0000   1.0000   1.0000   1.0000   1.0000   1.0000   1.0000   1.0000
     1.0000   1.0000   1.0001   1.0003   1.0011   1.0102   1.0477   0.8924
     0.2544   0.1468   0.0000   0.0000   0.0000   0.0000   0.0000   0.0000
     0.0000   0.0000   0.0000   0.0000   0.0000   0.0000   0.0000   0.0000
     0.0000   0.0000   0.0000

     the Fermi energy is    13.6030 ev

!    total energy              =   -1328.48095653 Ry
     Harris-Foulkes estimate   =   -1328.48095658 Ry
     estimated scf accuracy    <       0.00000010 Ry

     The total energy is the sum of the following terms:

     one-electron contribution =    -198.61671162 Ry
     hartree contribution      =     186.12773552 Ry
     xc contribution           =    -289.11009511 Ry
     ewald contribution        =   -1026.88514288 Ry
     smearing contrib. (-TS)   =       0.00325756 Ry

     total magnetization       =     0.00 Bohr mag/cell
     absolute magnetization    =     0.00 Bohr mag/cell

     convergence has been achieved in  19 iterations

     Writing output data file aiida.save

     General routines

     Parallel routines

   This run was terminated on:  17: 8:43  20Apr2017

   JOB DONE.