     Program PWSCF v.6.1 starts on  8Aug2017 at 16:34: 0

     Current dimensions of program PWSCF are:
     Max number of different atomic species (ntypx) = 10
     Max number of k-points (npk) =  40000
     Max angular momentum in pseudopotentials (lmaxx) =  3

     Subspace diagonalization in iterative solution of the eigenvalue problem:
     a serial algorithm will be used

   Info: using nr1, nr2, nr3 values from input

     bravais-lattice index     =            0
     lattice parameter (alat)  =      31.4056  a.u.
     unit-cell volume          =   21903.1443 (a.u.)^3
     number of atoms/cell      =           54
     number of atomic types    =            2
     number of electrons       =       432.00
     number of Kohn-Sham states=          259
     kinetic-energy cutoff     =      45.0000  Ry
     charge density cutoff     =     360.0000  Ry
     convergence threshold     =      5.4E-07
     mixing beta               =       0.3500
     number of iterations used =            8  plain     mixing
     Exchange-correlation      = SLA  PW   PBE  PBE ( 1  4  3  4 0 0)

     celldm(1)=  31.405604  celldm(2)=   0.000000  celldm(3)=   0.000000
     celldm(4)=   0.000000  celldm(5)=   0.000000  celldm(6)=   0.000000

     crystal axes: (cart. coord. in units of alat)
               a(1) = (   1.000000   0.000000   0.000000 )
               a(2) = (  -0.500000   0.707107  -0.500000 )
               a(3) = (   0.000000   0.000000   1.000000 )

     reciprocal axes: (cart. coord. in units 2 pi/alat)
               b(1) = (  1.000000  0.707107 -0.000000 )
               b(2) = (  0.000000  1.414214  0.000000 )
               b(3) = ( -0.000000  0.707107  1.000000 )

     PseudoPot. # 1 for Cs read from file:
     ./pseudo/Cs_pbe_v1.uspp.F.UPF
     MD5 check sum: 3476d69cb178dfad3ffaa59df4e07ca4
     Pseudo is Ultrasoft + core correction, Zval =  9.0
     Generated by new atomic code, or converted to UPF format
     Using radial grid of  905 points,  6 beta functions with:
                l(1) =   0
                l(2) =   0
                l(3) =   1
                l(4) =   1
                l(5) =   2
                l(6) =   2
     Q(r) pseudized with  6 coefficients,  rinner =    1.500   1.500   1.500
                                                       1.500   1.500

     PseudoPot. # 2 for I  read from file:
     ./pseudo/I_pbe_v1.uspp.F.UPF
     MD5 check sum: 51366c2fb896752a147e77acbb9f6bcb
     Pseudo is Ultrasoft + core correction, Zval =  7.0
     Generated by new atomic code, or converted to UPF format
     Using radial grid of  893 points,  6 beta functions with:
                l(1) =   0
                l(2) =   0
                l(3) =   1
                l(4) =   1
                l(5) =   2
                l(6) =   2
     Q(r) pseudized with  8 coefficients,  rinner =    1.500   1.500   1.500
                                                       1.500   1.500

     atomic species   valence    mass     pseudopotential
        Cs             9.00   132.90545     Cs( 1.00)
        I              7.00   126.90447     I ( 1.00)

     No symmetry found

                                    s                        frac. trans.

      isym =  1     identity

 cryst.   s( 1) = (     1          0          0      )
                  (     0          1          0      )
                  (     0          0          1      )

 cart.    s( 1) = (  1.0000000  0.0000000  0.0000000 )
                  (  0.0000000  1.0000000  0.0000000 )
                  (  0.0000000  0.0000000  1.0000000 )

   Cartesian axes

     site n.     atom                  positions (a.u.)
         1           Cs  tau(   1) = (  15.7567088  22.0681150  15.6777486  )
         2           Cs  tau(   2) = (  15.5797094  22.1674162  -5.3125422  )
         3           Cs  tau(   3) = (  15.6206425  22.0820821   5.2125602  )
         4           Cs  tau(   4) = (  26.1253071   7.2862844  -5.1490631  )
         5           Cs  tau(   5) = (  26.1782224   7.2681475   5.1650487  )
         6           Cs  tau(   6) = (  -5.2654524   7.5321059  15.7738754  )
         7           Cs  tau(   7) = ( -10.4855889  14.9308094 -10.3868559  )
         8           Cs  tau(   8) = ( -10.3331288  14.7413908   0.0225040  )
         9           Cs  tau(   9) = (  20.8314272  14.9118750  10.4832802  )
        10           Cs  tau(  10) = (  10.3717088   0.0922588  31.3351213  )
        11           Cs  tau(  11) = (  -5.3749842  22.2061828  -5.1790158  )
        12           Cs  tau(  12) = (  10.3859172   0.0742297  21.0396323  )
        13           Cs  tau(  13) = (   5.2820790   7.5457824  -5.2327505  )
        14           Cs  tau(  14) = (   5.2097947   7.2549683   5.2112877  )
        15           Cs  tau(  15) = (   5.3835492   7.4213821  15.6883673  )
        16           Cs  tau(  16) = (  -0.0530397  14.7172458 -10.3572437  )
        17           Cs  tau(  17) = (  -0.0493768  14.6681664  -0.0419924  )
        18           Cs  tau(  18) = (   0.0421442  14.8785765  10.5935445  )
        19           Cs  tau(  19) = (  20.8907429   0.0815275   0.1185830  )
        20           Cs  tau(  20) = (  20.9432845   0.0812971  10.5958413  )
        21           Cs  tau(  21) = (  21.0032837   0.1358437  20.9411899  )
        22           Cs  tau(  22) = (  15.8206137   7.4246678  26.0792601  )
        23           Cs  tau(  23) = (  15.7807894   7.3931748   5.1050845  )
        24           Cs  tau(  24) = (  15.5726632   7.4630480  15.7501000  )
        25           Cs  tau(  25) = (  10.5880232  14.8435362 -10.3844368  )
        26           Cs  tau(  26) = (  10.5710729  14.8772789  -0.0841392  )
        27           Cs  tau(  27) = (  10.5917441  14.8407709  10.3886828  )
        28           I   tau(  28) = (   5.2490891   0.1503857   5.2298787  )
        29           I   tau(  29) = (   5.1073247   0.0035600  15.7848246  )
        30           I   tau(  30) = (   5.1271788   0.1060008  26.1836125  )
        31           I   tau(  31) = (   0.0828421   7.5269935   0.0214818  )
        32           I   tau(  32) = (   0.0465070   7.2925686  10.3756093  )
        33           I   tau(  33) = (   0.0120975   7.4268868  21.0857554  )
        34           I   tau(  34) = (  -5.2343842  14.7976706  -5.3852799  )
        35           I   tau(  35) = (  -5.1763544  14.7510278   5.1053663  )
        36           I   tau(  36) = (  -5.1102776  14.8609467  15.7685486  )
        37           I   tau(  37) = (   0.1247830  22.1725965 -10.3904807  )
        38           I   tau(  38) = (  15.6351237   0.1330706  15.6789976  )
        39           I   tau(  39) = (  15.8053616   0.0280091  26.2788165  )
        40           I   tau(  40) = (  10.3619593   7.3951589  -0.1069788  )
        41           I   tau(  41) = (  10.5692270   7.4208203  10.5797802  )
        42           I   tau(  42) = (  10.3714655   7.2933621  20.9764299  )
        43           I   tau(  43) = (   5.1095655  14.8899995  -5.2402451  )
        44           I   tau(  44) = (   5.1208868  14.8587383   5.1500994  )
        45           I   tau(  45) = (   5.1460214  14.8064135  15.8255404  )
        46           I   tau(  46) = (  10.5842630  22.1201890 -10.5121872  )
        47           I   tau(  47) = (  10.3322788  22.1437979   0.0167324  )
        48           I   tau(  48) = (  26.2273575   0.0969202  26.0697348  )
        49           I   tau(  49) = (  20.8014627   7.3355475  -0.0003023  )
        50           I   tau(  50) = (  20.8961625   7.3353978  10.5977473  )
        51           I   tau(  51) = (  20.8597873   7.5288633  20.9073676  )
        52           I   tau(  52) = (  15.7971746  14.9181078  -5.2011424  )
        53           I   tau(  53) = (  15.8408514  14.8659140   5.2268221  )
        54           I   tau(  54) = (  15.6550028  14.9414326  15.6593713  )

   Crystallographic axes

     site n.     atom                  positions (cryst. coord.)
         1           Cs  tau(   1) = (  0.9985868  0.9937407  0.9960726  )
         2           Cs  tau(   2) = (  0.9951867  0.9982123  0.3299471  )
         3           Cs  tau(   3) = (  0.9945687  0.9943697  0.6631603  )
         4           Cs  tau(   4) = (  0.9959206  0.3281058  0.0000993  )
         5           Cs  tau(   5) = (  0.9971971  0.3272891  0.3281072  )
         6           Cs  tau(   6) = (  0.0019280  0.3391753  0.6718507  )
         7           Cs  tau(   7) = (  0.0022954  0.6723435  0.0054392  )
         8           Cs  tau(   8) = (  0.0028851  0.6638138  0.3326235  )
         9           Cs  tau(   9) = (  0.9990483  0.6714908  0.6695483  )
        10           Cs  tau(  10) = (  0.3323275  0.0041545  0.9998330  )
        11           Cs  tau(  11) = (  0.3288317  0.9999580  0.3350716  )
        12           Cs  tau(  12) = (  0.3323740  0.0033426  0.6716037  )
        13           Cs  tau(  13) = (  0.3380847  0.3397912  0.0032772  )
        14           Cs  tau(  14) = (  0.3292352  0.3266957  0.3292828  )
        15           Cs  tau(  15) = (  0.3385147  0.3341894  0.6666351  )
        16           Cs  tau(  16) = (  0.3296744  0.6627266  0.0015736  )
        17           Cs  tau(  17) = (  0.3286860  0.6605165  0.3289212  )
        18           Cs  tau(  18) = (  0.3363376  0.6699914  0.6723095  )
        19           Cs  tau(  19) = (  0.6670272  0.0036712  0.0056115  )
        20           Cs  tau(  20) = (  0.6686950  0.0036609  0.3392174  )
        21           Cs  tau(  21) = (  0.6718336  0.0061171  0.6698564  )
        22           Cs  tau(  22) = (  0.6709200  0.3343373  0.9975701  )
        23           Cs  tau(  23) = (  0.6689428  0.3329192  0.3290129  )
        24           Cs  tau(  24) = (  0.6638890  0.3360656  0.6695388  )
        25           Cs  tau(  25) = (  0.6713448  0.6684135  0.0035512  )
        26           Cs  tau(  26) = (  0.6715648  0.6699330  0.3322874  )
        27           Cs  tau(  27) = (  0.6714010  0.6682890  0.6649352  )
        28           I   tau(  28) = (  0.1705246  0.0067720  0.1699129  )
        29           I   tau(  29) = (  0.1627048  0.0001603  0.5026919  )
        30           I   tau(  30) = (  0.1656435  0.0047733  0.8361108  )
        31           I   tau(  31) = (  0.1721104  0.3389451  0.1701566  )
        32           I   tau(  32) = (  0.1656753  0.3283888  0.4945689  )
        33           I   tau(  33) = (  0.1676038  0.3344373  0.8386197  )
        34           I   tau(  34) = (  0.1665037  0.6663482  0.1616990  )
        35           I   tau(  35) = (  0.1673013  0.6642478  0.4946862  )
        36           I   tau(  36) = (  0.1718801  0.6691975  0.8366922  )
        37           I   tau(  37) = (  0.5031961  0.9984456  0.1683748  )
        38           I   tau(  38) = (  0.5008411  0.0059923  0.5022382  )
        39           I   tau(  39) = (  0.5038963  0.0012613  0.8373863  )
        40           I   tau(  40) = (  0.4964441  0.3330085  0.1630979  )
        41           I   tau(  41) = (  0.5036216  0.3341641  0.5039576  )
        42           I   tau(  42) = (  0.4944548  0.3284246  0.8321322  )
        43           I   tau(  43) = (  0.4979489  0.6705058  0.1683959  )
[...]
sirius::Density::initial_density                                  :      1     0.1117     0.1117     0.1117     0.1117      22.48
sirius::Density::symmetrize_density_matrix                        :     29     0.0332     0.0011     0.0012     0.0011     100.00
sirius::K_point::generate_gkvec                                   :      4     0.0608     0.0151     0.0153     0.0152       0.13
sirius::K_point::initialize                                       :      4     0.7538     0.1879     0.1889     0.1885      12.45
sirius::K_point_set::sync_band_energies                           :     29    70.9030     0.3391     5.9741     2.4449     100.00
sirius::Local_operator::apply_h                                   :    930   117.5799     0.0016     0.7777     0.1264       6.87
sirius::Local_operator::prepare                                   :    150     2.8252     0.0038     1.0407     0.0188      45.14
sirius::Non_local_operator::apply                                 :   1860    40.3347     0.0058     0.1192     0.0217     100.00
sirius::Periodic_function::inner                                  :     87     0.1753     0.0018     0.0022     0.0020      65.43
sirius::Potential::Potential                                      :      1     0.2776     0.2776     0.2776     0.2776      18.20
sirius::Potential::generate_D_operator_matrix                     :     30     0.4931     0.0149     0.0201     0.0164     100.00
sirius::Potential::generate_local_potential                       :      1     0.2271     0.2271     0.2271     0.2271       0.05
sirius::Radial_integrals|aug                                      :      1     0.0239     0.0239     0.0239     0.0239     100.00
sirius::Radial_integrals|beta                                     :      2     0.2318     0.1128     0.1190     0.1159     100.00
sirius::Radial_integrals|rho_core_pseudo                          :      1     0.0156     0.0156     0.0156     0.0156     100.00
sirius::Radial_integrals|rho_pseudo                               :      1     0.0155     0.0155     0.0155     0.0155     100.00
sirius::Radial_integrals|vloc                                     :      1     0.1813     0.1813     0.1813     0.1813     100.00
sirius::Simulation_context::initialize                            :      1     1.2868     1.2868     1.2868     1.2868       0.07
sirius::Simulation_context_base::initialize                       :      1     1.0358     1.0358     1.0358     1.0358      10.64
sirius::Simulation_context_base::make_periodic_function           :      3     0.0125     0.0032     0.0059     0.0042     100.00
sirius::Smooth_periodic_function::fft_transform                   :    151     5.3436     0.0102     0.0858     0.0354      80.28
sirius::Smooth_periodic_function::gather_f_pw                     :    120     2.1628     0.0035     1.0075     0.0180     100.00
sirius::Symmetry::symmetrize_function_pw                          :     29     0.6299     0.0203     0.0271     0.0217      17.35
sirius::Symmetry::symmetrize_function_pw|local                    :     29     0.0458     0.0016     0.0016     0.0016     100.00
+global_timer (  710.6313s, 0.02 % of self, 100.00 % of total)
|--qe|run_pwscf (  710.4564s, 99.98 %)
qe|electrons (  696.3813s, 0.00 % of self, 97.99 % of total)
|--qe|electrons|scf (  677.2004s, 97.25 %)
|--qe|electrons|init (   19.1711s, 2.75 %)
qe|electrons|init (   19.1711s, 26.85 % of self, 2.70 % of total)
|--sirius::Band::initialize_subspace (   13.3634s, 69.71 %)
|--sirius::Potential::Potential (    0.2776s, 1.45 %)
|--sirius::Density::initial_density (    0.1117s, 0.58 %)
|--sirius::Smooth_periodic_function::fft_transform (    0.0992s, 0.52 %)
|--sirius::Density::generate_pseudo_core_charge_density (    0.0703s, 0.37 %)
|--sirius::Smooth_periodic_function::gather_f_pw (    0.0595s, 0.31 %)
|--sirius::DFT_ground_state::ewald_energy (    0.0265s, 0.14 %)
|--sirius::Potential::generate_D_operator_matrix (    0.0158s, 0.08 %)
|--sirius::Band::Band (    0.0000s, 0.00 %)
qe|electrons|scf (  677.2004s, 0.03 % of self, 95.30 % of total)
|--sirius::Band::solve_for_kset (  465.8612s, 68.79 %)
|--qe|veff (  128.8223s, 19.02 %)
|--sirius::Density::generate_valence (   59.3479s, 8.76 %)
|--qe|mix (   20.8330s, 3.08 %)
|--sirius::Smooth_periodic_function::fft_transform (    1.0239s, 0.15 %)
|--sirius::DFT_ground_state::symmetrize (    0.9605s, 0.14 %)
|--sirius::Periodic_function::inner (    0.1147s, 0.02 %)
qe|mix (   20.8330s, 93.64 % of self, 2.93 % of total)
|--sirius::Smooth_periodic_function::fft_transform (    1.0128s, 4.86 %)
|--sirius::Smooth_periodic_function::gather_f_pw (    0.3131s, 1.50 %)
qe|run_pwscf (  710.4564s, 0.09 % of self, 99.98 % of total)
|--qe|run_pwscf|electrons (  696.3814s, 98.02 %)
|--qe|run_pwscf|punch (    9.2327s, 1.30 %)
|--qe|run_pwscf|init_run (    2.1125s, 0.30 %)
|--qe|run_pwscf|setup_sirius (    2.0687s, 0.29 %)
|--qe|run_pwscf|setup (    0.0301s, 0.00 %)
|--qe|run_pwscf|ions (    0.0000s, 0.00 %)
|--qe|run_pwscf|forces (    0.0000s, 0.00 %)
|--qe|run_pwscf|stress (    0.0000s, 0.00 %)
qe|run_pwscf|electrons (  696.3814s, 0.00 % of self, 97.99 % of total)
|--qe|electrons (  696.3813s, 100.00 %)
qe|veff (  128.8223s, 97.49 % of self, 18.13 % of total)
|--sirius::Smooth_periodic_function::fft_transform (    2.7521s, 2.14 %)
|--sirius::Potential::generate_D_operator_matrix (    0.4773s, 0.37 %)
sddk::FFT3D::transform (  150.7929s, 0.23 % of self, 21.22 % of total)
|--sddk::FFT3D::transform_xy (  112.5732s, 74.65 %)
|--sddk::FFT3D::transform_z (   37.8717s, 25.12 %)
sddk::FFT3D::transform_z (   37.8717s, 37.58 % of self, 5.33 % of total)
|--sddk::FFT3D::transform_z_serial (   23.6409s, 62.42 %)
sddk::wave_functions::orthogonalize (   41.5478s, 25.62 % of self, 5.85 % of total)
|--sddk::wave_functions::inner (   30.0176s, 72.25 %)
|--sddk::wave_functions::transform (    0.8874s, 2.14 %)
sirius::Band::apply_h_o (  195.8848s, 0.01 % of self, 27.56 % of total)
|--sirius::Local_operator::apply_h (  117.5799s, 60.03 %)
|--sirius::Non_local_operator::apply (   40.3347s, 20.59 %)
|--sirius::Beta_projectors_base::inner (   29.1490s, 14.88 %)
|--sirius::Beta_projectors_base::generate (    8.7996s, 4.49 %)
sirius::Band::diag_pseudo_potential (  392.6243s, 0.02 % of self, 55.25 % of total)
|--sirius::Band::diag_pseudo_potential_davidson (  391.6825s, 99.76 %)
|--sirius::Local_operator::prepare (    0.4653s, 0.12 %)
|--sddk::FFT3D::prepare (    0.3772s, 0.10 %)
|--sirius::Non_local_operator::Non_local_operator (    0.0064s, 0.00 %)
sirius::Band::diag_pseudo_potential_davidson (  391.6825s, 1.14 % of self, 55.12 % of total)
|--sirius::Band::diag_pseudo_potential_davidson|iter (  359.3187s, 91.74 %)
|--sirius::Band::get_h_diag (    8.0629s, 2.06 %)
|--sirius::Band::diag_pseudo_potential_davidson|alloc (    8.0221s, 2.05 %)
|--sirius::Band::get_o_diag (    7.7340s, 1.97 %)
|--sirius::Beta_projectors_base::dismiss (    4.0206s, 1.03 %)
|--sirius::Band::diag_pseudo_potential_davidson|wf (    0.0637s, 0.02 %)
sirius::Band::diag_pseudo_potential_davidson|alloc (    8.0221s, 89.19 % of self, 1.13 % of total)
|--sirius::Beta_projectors_base::prepare (    0.8674s, 10.81 %)
sirius::Band::diag_pseudo_potential_davidson|iter (  359.3187s, 0.01 % of self, 50.56 % of total)
|--sirius::Band::apply_h_o (  190.1042s, 52.91 %)
|--sirius::Band::diag_pseudo_potential_davidson|evp (   99.0841s, 27.58 %)
|--sddk::wave_functions::orthogonalize (   40.6616s, 11.32 %)
|--sirius::Band::residuals (   15.4710s, 4.31 %)
|--sirius::Band::set_subspace_mtrx (   13.2860s, 3.70 %)
|--sirius::Band::diag_pseudo_potential_davidson|update_phi (    0.6845s, 0.19 %)
sirius::Band::initialize_subspace (   13.3634s, 0.00 % of self, 1.88 % of total)
|--sirius::Band::initialize_subspace|kp (   13.3100s, 99.60 %)
|--sirius::Local_operator::prepare (    0.0529s, 0.40 %)
sirius::Band::initialize_subspace|kp (   13.3100s, 12.37 % of self, 1.87 % of total)
|--sirius::Band::apply_h_o (    5.7806s, 43.43 %)
|--sddk::matrix_storage::matrix_storage (    3.6060s, 27.09 %)
|--sirius::Band::initialize_subspace|kp|wf (    0.9059s, 6.81 %)
|--sddk::wave_functions::orthogonalize (    0.8863s, 6.66 %)
|--sirius::Band::set_subspace_mtrx (    0.4125s, 3.10 %)
|--sirius::Beta_projectors_base::prepare (    0.0298s, 0.22 %)
|--sirius::Local_operator::prepare (    0.0163s, 0.12 %)
|--sddk::wave_functions::transform (    0.0130s, 0.10 %)
|--sddk::FFT3D::prepare (    0.0123s, 0.09 %)
|--sirius::Beta_projectors_base::dismiss (    0.0004s, 0.00 %)
|--sirius::Non_local_operator::Non_local_operator (    0.0003s, 0.00 %)
sirius::Band::residuals (   15.4710s, 1.63 % of self, 2.18 % of total)
|--sirius::Band::residuals_aux (   14.0405s, 90.75 %)
|--sddk::wave_functions::transform (    1.1788s, 7.62 %)
sirius::Band::set_subspace_mtrx (   13.6984s, 2.21 % of self, 1.93 % of total)
|--sddk::wave_functions::inner (   13.3961s, 97.79 %)
sirius::Band::solve_for_kset (  465.8612s, 0.01 % of self, 65.56 % of total)
|--sirius::Band::diag_pseudo_potential (  392.6243s, 84.28 %)
|--sirius::K_point_set::sync_band_energies (   70.9030s, 15.22 %)
|--sirius::Local_operator::prepare (    2.2907s, 0.49 %)
sirius::Density::add_k_point_contribution_dm (   11.5786s, 2.53 % of self, 1.63 % of total)
|--sirius::Beta_projectors_base::inner (    9.5147s, 82.18 %)
|--sirius::Beta_projectors_base::generate (    0.9206s, 7.95 %)
|--sirius::Beta_projectors_base::prepare (    0.8201s, 7.08 %)
|--sirius::Beta_projectors_base::dismiss (    0.0299s, 0.26 %)
sirius::Density::add_k_point_contribution_rg (   41.2333s, 1.77 % of self, 5.80 % of total)
|--sddk::FFT3D::transform (   40.1412s, 97.35 %)
|--sddk::FFT3D::prepare (    0.3636s, 0.88 %)
sirius::Density::generate_valence (   59.3479s, 9.40 % of self, 8.35 % of total)
|--sirius::Density::add_k_point_contribution_rg (   41.2333s, 69.48 %)
|--sirius::Density::add_k_point_contribution_dm (   11.5786s, 19.51 %)
|--sirius::Density::augment (    0.4086s, 0.69 %)
|--sirius::Smooth_periodic_function::fft_transform (    0.2966s, 0.50 %)
|--sirius::Smooth_periodic_function::gather_f_pw (    0.1125s, 0.19 %)
|--sddk::FFT3D::prepare (    0.1046s, 0.18 %)
|--sirius::Density::symmetrize_density_matrix (    0.0332s, 0.06 %)
|--sddk::matrix_storage::remap_forward (    0.0006s, 0.00 %)
sirius::Local_operator::apply_h (  117.5799s, 6.87 % of self, 16.55 % of total)
|--sddk::FFT3D::transform (  109.5057s, 93.13 %)
|--sddk::matrix_storage::remap_forward (    0.0012s, 0.00 %)
|--sddk::matrix_storage::remap_backward (    0.0003s, 0.00 %)

     General routines

     Parallel routines

   This run was terminated on:  16:45:52   8Aug2017

   JOB DONE.
Note: The following floating-point exceptions are signalling: IEEE_UNDERFLOW_FLAG IEEE_DENORMAL
Note: The following floating-point exceptions are signalling: IEEE_UNDERFLOW_FLAG IEEE_DENORMAL
Note: The following floating-point exceptions are signalling: IEEE_UNDERFLOW_FLAG IEEE_DENORMAL
Note: The following floating-point exceptions are signalling: IEEE_UNDERFLOW_FLAG IEEE_DENORMAL
Note: The following floating-point exceptions are signalling: IEEE_UNDERFLOW_FLAG IEEE_DENORMAL
Note: The following floating-point exceptions are signalling: IEEE_UNDERFLOW_FLAG IEEE_DENORMAL
Note: The following floating-point exceptions are signalling: IEEE_UNDERFLOW_FLAG IEEE_DENORMAL
Note: The following floating-point exceptions are signalling: IEEE_UNDERFLOW_FLAG IEEE_DENORMAL
Note: The following floating-point exceptions are signalling: IEEE_UNDERFLOW_FLAG IEEE_DENORMAL
Note: The following floating-point exceptions are signalling: IEEE_UNDERFLOW_FLAG IEEE_DENORMAL
Note: The following floating-point exceptions are signalling: IEEE_UNDERFLOW_FLAG IEEE_DENORMAL
Note: The following floating-point exceptions are signalling: IEEE_UNDERFLOW_FLAG IEEE_DENORMAL
Note: The following floating-point exceptions are signalling: IEEE_UNDERFLOW_FLAG IEEE_DENORMAL
Note: The following floating-point exceptions are signalling: IEEE_UNDERFLOW_FLAG IEEE_DENORMAL
Note: The following floating-point exceptions are signalling: IEEE_UNDERFLOW_FLAG IEEE_DENORMAL
Note: The following floating-point exceptions are signalling: IEEE_UNDERFLOW_FLAG IEEE_DENORMAL
Note: The following floating-point exceptions are signalling: IEEE_UNDERFLOW_FLAG IEEE_DENORMAL
Note: The following floating-point exceptions are signalling: IEEE_UNDERFLOW_FLAG IEEE_DENORMAL
Note: The following floating-point exceptions are signalling: IEEE_UNDERFLOW_FLAG IEEE_DENORMAL
Note: The following floating-point exceptions are signalling: IEEE_UNDERFLOW_FLAG IEEE_DENORMAL
Note: The following floating-point exceptions are signalling: IEEE_UNDERFLOW_FLAG IEEE_DENORMAL
Note: The following floating-point exceptions are signalling: IEEE_UNDERFLOW_FLAG IEEE_DENORMAL
Note: The following floating-point exceptions are signalling: IEEE_UNDERFLOW_FLAG IEEE_DENORMAL
Note: The following floating-point exceptions are signalling: IEEE_UNDERFLOW_FLAG IEEE_DENORMAL
Note: The following floating-point exceptions are signalling: IEEE_UNDERFLOW_FLAG IEEE_DENORMAL
Note: The following floating-point exceptions are signalling: IEEE_UNDERFLOW_FLAG IEEE_DENORMAL
Note: The following floating-point exceptions are signalling: IEEE_UNDERFLOW_FLAG IEEE_DENORMAL
Note: The following floating-point exceptions are signalling: IEEE_UNDERFLOW_FLAG IEEE_DENORMAL
Note: The following floating-point exceptions are signalling: IEEE_UNDERFLOW_FLAG IEEE_DENORMAL
Note: The following floating-point exceptions are signalling: IEEE_UNDERFLOW_FLAG IEEE_DENORMAL
Note: The following floating-point exceptions are signalling: IEEE_UNDERFLOW_FLAG IEEE_DENORMAL
Note: The following floating-point exceptions are signalling: IEEE_UNDERFLOW_FLAG IEEE_DENORMAL
Note: The following floating-point exceptions are signalling: IEEE_UNDERFLOW_FLAG IEEE_DENORMAL
Note: The following floating-point exceptions are signalling: IEEE_UNDERFLOW_FLAG IEEE_DENORMAL
Note: The following floating-point exceptions are signalling: IEEE_UNDERFLOW_FLAG IEEE_DENORMAL
Note: The following floating-point exceptions are signalling: IEEE_UNDERFLOW_FLAG IEEE_DENORMAL
Note: The following floating-point exceptions are signalling: IEEE_UNDERFLOW_FLAG IEEE_DENORMAL
Note: The following floating-point exceptions are signalling: IEEE_UNDERFLOW_FLAG IEEE_DENORMAL
Note: The following floating-point exceptions are signalling: IEEE_UNDERFLOW_FLAG IEEE_DENORMAL
Note: The following floating-point exceptions are signalling: IEEE_UNDERFLOW_FLAG IEEE_DENORMAL
Note: The following floating-point exceptions are signalling: IEEE_UNDERFLOW_FLAG IEEE_DENORMAL
Note: The following floating-point exceptions are signalling: IEEE_UNDERFLOW_FLAG IEEE_DENORMAL
Note: The following floating-point exceptions are signalling: IEEE_UNDERFLOW_FLAG IEEE_DENORMAL
Note: The following floating-point exceptions are signalling: IEEE_UNDERFLOW_FLAG IEEE_DENORMAL
Note: The following floating-point exceptions are signalling: IEEE_UNDERFLOW_FLAG IEEE_DENORMAL
Note: The following floating-point exceptions are signalling: IEEE_UNDERFLOW_FLAG IEEE_DENORMAL
Note: The following floating-point exceptions are signalling: IEEE_UNDERFLOW_FLAG IEEE_DENORMAL
Note: The following floating-point exceptions are signalling: IEEE_UNDERFLOW_FLAG IEEE_DENORMAL
Note: The following floating-point exceptions are signalling: IEEE_UNDERFLOW_FLAG IEEE_DENORMAL
Note: The following floating-point exceptions are signalling: IEEE_UNDERFLOW_FLAG IEEE_DENORMAL
Note: The following floating-point exceptions are signalling: IEEE_UNDERFLOW_FLAG IEEE_DENORMAL
Note: The following floating-point exceptions are signalling: IEEE_UNDERFLOW_FLAG IEEE_DENORMAL
Note: The following floating-point exceptions are signalling: IEEE_UNDERFLOW_FLAG IEEE_DENORMAL
Note: The following floating-point exceptions are signalling: IEEE_UNDERFLOW_FLAG IEEE_DENORMAL
Note: The following floating-point exceptions are signalling: IEEE_UNDERFLOW_FLAG IEEE_DENORMAL
Note: The following floating-point exceptions are signalling: IEEE_UNDERFLOW_FLAG IEEE_DENORMAL
Note: The following floating-point exceptions are signalling: IEEE_UNDERFLOW_FLAG IEEE_DENORMAL
Note: The following floating-point exceptions are signalling: IEEE_UNDERFLOW_FLAG IEEE_DENORMAL
Note: The following floating-point exceptions are signalling: IEEE_UNDERFLOW_FLAG IEEE_DENORMAL
Note: The following floating-point exceptions are signalling: IEEE_UNDERFLOW_FLAG IEEE_DENORMAL
Note: The following floating-point exceptions are signalling: IEEE_UNDERFLOW_FLAG IEEE_DENORMAL
Note: The following floating-point exceptions are signalling: IEEE_UNDERFLOW_FLAG IEEE_DENORMAL
Note: The following floating-point exceptions are signalling: IEEE_UNDERFLOW_FLAG IEEE_DENORMAL
Note: The following floating-point exceptions are signalling: IEEE_UNDERFLOW_FLAG IEEE_DENORMAL