     Program PWSCF v.6.1 starts on  8Aug2017 at 16:47:26

     Current dimensions of program PWSCF are:
     Max number of different atomic species (ntypx) = 10
     Max number of k-points (npk) =  40000
     Max angular momentum in pseudopotentials (lmaxx) =  3

     Subspace diagonalization in iterative solution of the eigenvalue problem:
     a serial algorithm will be used

   Info: using nr1, nr2, nr3 values from input

     bravais-lattice index     =            0
     lattice parameter (alat)  =      31.4056  a.u.
     unit-cell volume          =   21903.1443 (a.u.)^3
     number of atoms/cell      =           54
     number of atomic types    =            2
     number of electrons       =       432.00
     number of Kohn-Sham states=          259
     kinetic-energy cutoff     =      45.0000  Ry
     charge density cutoff     =     360.0000  Ry
     convergence threshold     =      5.4E-07
     mixing beta               =       0.3500
     number of iterations used =            8  plain     mixing
     Exchange-correlation      = SLA  PW   PBE  PBE ( 1  4  3  4 0 0)

     celldm(1)=  31.405604  celldm(2)=   0.000000  celldm(3)=   0.000000
     celldm(4)=   0.000000  celldm(5)=   0.000000  celldm(6)=   0.000000

     crystal axes: (cart. coord. in units of alat)
               a(1) = (   1.000000   0.000000   0.000000 )
               a(2) = (  -0.500000   0.707107  -0.500000 )
               a(3) = (   0.000000   0.000000   1.000000 )

     reciprocal axes: (cart. coord. in units 2 pi/alat)
               b(1) = (  1.000000  0.707107 -0.000000 )
               b(2) = (  0.000000  1.414214  0.000000 )
               b(3) = ( -0.000000  0.707107  1.000000 )

     PseudoPot. # 1 for Cs read from file:
     ./pseudo/Cs_pbe_v1.uspp.F.UPF
     MD5 check sum: 3476d69cb178dfad3ffaa59df4e07ca4
     Pseudo is Ultrasoft + core correction, Zval =  9.0
     Generated by new atomic code, or converted to UPF format
     Using radial grid of  905 points,  6 beta functions with:
                l(1) =   0
                l(2) =   0
                l(3) =   1
                l(4) =   1
                l(5) =   2
                l(6) =   2
     Q(r) pseudized with  6 coefficients,  rinner =    1.500   1.500   1.500
                                                       1.500   1.500

     PseudoPot. # 2 for I  read from file:
     ./pseudo/I_pbe_v1.uspp.F.UPF
     MD5 check sum: 51366c2fb896752a147e77acbb9f6bcb
     Pseudo is Ultrasoft + core correction, Zval =  7.0
     Generated by new atomic code, or converted to UPF format
     Using radial grid of  893 points,  6 beta functions with:
                l(1) =   0
                l(2) =   0
                l(3) =   1
                l(4) =   1
                l(5) =   2
                l(6) =   2
     Q(r) pseudized with  8 coefficients,  rinner =    1.500   1.500   1.500
                                                       1.500   1.500

     atomic species   valence    mass     pseudopotential
        Cs             9.00   132.90545     Cs( 1.00)
        I              7.00   126.90447     I ( 1.00)

     No symmetry found

                                    s                        frac. trans.

      isym =  1     identity

 cryst.   s( 1) = (     1          0          0      )
                  (     0          1          0      )
                  (     0          0          1      )

 cart.    s( 1) = (  1.0000000  0.0000000  0.0000000 )
                  (  0.0000000  1.0000000  0.0000000 )
                  (  0.0000000  0.0000000  1.0000000 )

   Cartesian axes

     site n.     atom                  positions (a.u.)
         1           Cs  tau(   1) = (  15.7567088  22.0681150  15.6777486  )
         2           Cs  tau(   2) = (  15.5797094  22.1674162  -5.3125422  )
         3           Cs  tau(   3) = (  15.6206425  22.0820821   5.2125602  )
         4           Cs  tau(   4) = (  26.1253071   7.2862844  -5.1490631  )
         5           Cs  tau(   5) = (  26.1782224   7.2681475   5.1650487  )
         6           Cs  tau(   6) = (  -5.2654524   7.5321059  15.7738754  )
         7           Cs  tau(   7) = ( -10.4855889  14.9308094 -10.3868559  )
         8           Cs  tau(   8) = ( -10.3331288  14.7413908   0.0225040  )
         9           Cs  tau(   9) = (  20.8314272  14.9118750  10.4832802  )
        10           Cs  tau(  10) = (  10.3717088   0.0922588  31.3351213  )
        11           Cs  tau(  11) = (  -5.3749842  22.2061828  -5.1790158  )
        12           Cs  tau(  12) = (  10.3859172   0.0742297  21.0396323  )
        13           Cs  tau(  13) = (   5.2820790   7.5457824  -5.2327505  )
        14           Cs  tau(  14) = (   5.2097947   7.2549683   5.2112877  )
        15           Cs  tau(  15) = (   5.3835492   7.4213821  15.6883673  )
        16           Cs  tau(  16) = (  -0.0530397  14.7172458 -10.3572437  )
        17           Cs  tau(  17) = (  -0.0493768  14.6681664  -0.0419924  )
        18           Cs  tau(  18) = (   0.0421442  14.8785765  10.5935445  )
        19           Cs  tau(  19) = (  20.8907429   0.0815275   0.1185830  )
        20           Cs  tau(  20) = (  20.9432845   0.0812971  10.5958413  )
        21           Cs  tau(  21) = (  21.0032837   0.1358437  20.9411899  )
        22           Cs  tau(  22) = (  15.8206137   7.4246678  26.0792601  )
        23           Cs  tau(  23) = (  15.7807894   7.3931748   5.1050845  )
        24           Cs  tau(  24) = (  15.5726632   7.4630480  15.7501000  )
        25           Cs  tau(  25) = (  10.5880232  14.8435362 -10.3844368  )
        26           Cs  tau(  26) = (  10.5710729  14.8772789  -0.0841392  )
        27           Cs  tau(  27) = (  10.5917441  14.8407709  10.3886828  )
        28           I   tau(  28) = (   5.2490891   0.1503857   5.2298787  )
        29           I   tau(  29) = (   5.1073247   0.0035600  15.7848246  )
        30           I   tau(  30) = (   5.1271788   0.1060008  26.1836125  )
        31           I   tau(  31) = (   0.0828421   7.5269935   0.0214818  )
        32           I   tau(  32) = (   0.0465070   7.2925686  10.3756093  )
        33           I   tau(  33) = (   0.0120975   7.4268868  21.0857554  )
        34           I   tau(  34) = (  -5.2343842  14.7976706  -5.3852799  )
        35           I   tau(  35) = (  -5.1763544  14.7510278   5.1053663  )
        36           I   tau(  36) = (  -5.1102776  14.8609467  15.7685486  )
        37           I   tau(  37) = (   0.1247830  22.1725965 -10.3904807  )
        38           I   tau(  38) = (  15.6351237   0.1330706  15.6789976  )
        39           I   tau(  39) = (  15.8053616   0.0280091  26.2788165  )
        40           I   tau(  40) = (  10.3619593   7.3951589  -0.1069788  )
        41           I   tau(  41) = (  10.5692270   7.4208203  10.5797802  )
        42           I   tau(  42) = (  10.3714655   7.2933621  20.9764299  )
        43           I   tau(  43) = (   5.1095655  14.8899995  -5.2402451  )
        44           I   tau(  44) = (   5.1208868  14.8587383   5.1500994  )
        45           I   tau(  45) = (   5.1460214  14.8064135  15.8255404  )
        46           I   tau(  46) = (  10.5842630  22.1201890 -10.5121872  )
        47           I   tau(  47) = (  10.3322788  22.1437979   0.0167324  )
        48           I   tau(  48) = (  26.2273575   0.0969202  26.0697348  )
        49           I   tau(  49) = (  20.8014627   7.3355475  -0.0003023  )
        50           I   tau(  50) = (  20.8961625   7.3353978  10.5977473  )
        51           I   tau(  51) = (  20.8597873   7.5288633  20.9073676  )
        52           I   tau(  52) = (  15.7971746  14.9181078  -5.2011424  )
        53           I   tau(  53) = (  15.8408514  14.8659140   5.2268221  )
        54           I   tau(  54) = (  15.6550028  14.9414326  15.6593713  )

   Crystallographic axes

     site n.     atom                  positions (cryst. coord.)
         1           Cs  tau(   1) = (  0.9985868  0.9937407  0.9960726  )
         2           Cs  tau(   2) = (  0.9951867  0.9982123  0.3299471  )
         3           Cs  tau(   3) = (  0.9945687  0.9943697  0.6631603  )
         4           Cs  tau(   4) = (  0.9959206  0.3281058  0.0000993  )
         5           Cs  tau(   5) = (  0.9971971  0.3272891  0.3281072  )
         6           Cs  tau(   6) = (  0.0019280  0.3391753  0.6718507  )
         7           Cs  tau(   7) = (  0.0022954  0.6723435  0.0054392  )
         8           Cs  tau(   8) = (  0.0028851  0.6638138  0.3326235  )
         9           Cs  tau(   9) = (  0.9990483  0.6714908  0.6695483  )
        10           Cs  tau(  10) = (  0.3323275  0.0041545  0.9998330  )
        11           Cs  tau(  11) = (  0.3288317  0.9999580  0.3350716  )
        12           Cs  tau(  12) = (  0.3323740  0.0033426  0.6716037  )
        13           Cs  tau(  13) = (  0.3380847  0.3397912  0.0032772  )
        14           Cs  tau(  14) = (  0.3292352  0.3266957  0.3292828  )
        15           Cs  tau(  15) = (  0.3385147  0.3341894  0.6666351  )
        16           Cs  tau(  16) = (  0.3296744  0.6627266  0.0015736  )
        17           Cs  tau(  17) = (  0.3286860  0.6605165  0.3289212  )
        18           Cs  tau(  18) = (  0.3363376  0.6699914  0.6723095  )
        19           Cs  tau(  19) = (  0.6670272  0.0036712  0.0056115  )
        20           Cs  tau(  20) = (  0.6686950  0.0036609  0.3392174  )
        21           Cs  tau(  21) = (  0.6718336  0.0061171  0.6698564  )
        22           Cs  tau(  22) = (  0.6709200  0.3343373  0.9975701  )
        23           Cs  tau(  23) = (  0.6689428  0.3329192  0.3290129  )
        24           Cs  tau(  24) = (  0.6638890  0.3360656  0.6695388  )
        25           Cs  tau(  25) = (  0.6713448  0.6684135  0.0035512  )
        26           Cs  tau(  26) = (  0.6715648  0.6699330  0.3322874  )
        27           Cs  tau(  27) = (  0.6714010  0.6682890  0.6649352  )
        28           I   tau(  28) = (  0.1705246  0.0067720  0.1699129  )
        29           I   tau(  29) = (  0.1627048  0.0001603  0.5026919  )
        30           I   tau(  30) = (  0.1656435  0.0047733  0.8361108  )
        31           I   tau(  31) = (  0.1721104  0.3389451  0.1701566  )
        32           I   tau(  32) = (  0.1656753  0.3283888  0.4945689  )
        33           I   tau(  33) = (  0.1676038  0.3344373  0.8386197  )
        34           I   tau(  34) = (  0.1665037  0.6663482  0.1616990  )
        35           I   tau(  35) = (  0.1673013  0.6642478  0.4946862  )
        36           I   tau(  36) = (  0.1718801  0.6691975  0.8366922  )
        37           I   tau(  37) = (  0.5031961  0.9984456  0.1683748  )
        38           I   tau(  38) = (  0.5008411  0.0059923  0.5022382  )
        39           I   tau(  39) = (  0.5038963  0.0012613  0.8373863  )
        40           I   tau(  40) = (  0.4964441  0.3330085  0.1630979  )
        41           I   tau(  41) = (  0.5036216  0.3341641  0.5039576  )
        42           I   tau(  42) = (  0.4944548  0.3284246  0.8321322  )
        43           I   tau(  43) = (  0.4979489  0.6705058  0.1683959  )
[...]
sirius::Band::get_o_diag                                          :    203    13.5247     0.0659     0.0718     0.0666     100.00
sirius::Band::initialize_subspace                                 :      1    22.5650    22.5650    22.5650    22.5650       0.00
sirius::Band::initialize_subspace|kp                              :      7    22.5132     2.9842     3.6277     3.2162      12.77
sirius::Band::initialize_subspace|kp|wf                           :      7     1.5729     0.2234     0.2260     0.2247     100.00
sirius::Band::residuals                                           :   1636    27.6050     0.0000     0.1153     0.0169       1.64
sirius::Band::residuals_aux                                       :   1467    25.0734     0.0052     0.1071     0.0171     100.00
sirius::Band::set_subspace_mtrx                                   :   1656    23.7035     0.0017     0.1381     0.0143       2.35
sirius::Band::solve_for_kset                                      :     29   786.7667    10.9880    58.0091    27.1299       0.01
sirius::Beta_projectors::Beta_projectors                          :      7     0.2079     0.0295     0.0301     0.0297       0.03
sirius::Beta_projectors::generate_pw_coefs_t                      :      7     0.2079     0.0295     0.0300     0.0297     100.00
sirius::Beta_projectors_base::dismiss                             :    413     7.1712     0.0001     0.0578     0.0174     100.00
sirius::Beta_projectors_base::generate                            :   1859    16.3497     0.0073     0.5269     0.0088     100.00
sirius::Beta_projectors_base::inner                               :   1859    63.7027     0.0040     0.1897     0.0343     100.00
sirius::Beta_projectors_base::prepare                             :    413     2.9781     0.0069     0.0085     0.0072     100.00
sirius::DFT_ground_state::ewald_energy                            :      1     0.0101     0.0101     0.0101     0.0101     100.00
sirius::DFT_ground_state::symmetrize                              :     29     0.9483     0.0301     0.0381     0.0327       0.37
sirius::Density::add_k_point_contribution_dm                      :    203    18.8730     0.0712     0.1015     0.0930       2.74
sirius::Density::add_k_point_contribution_rg                      :    203    70.5967     0.3446     0.3587     0.3478       1.79
sirius::Density::augment                                          :     29     0.6879     0.0237     0.0238     0.0237       0.74
sirius::Density::generate_pseudo_core_charge_density              :      1     0.0717     0.0717     0.0717     0.0717       0.16
sirius::Density::generate_rho_aug                                 :     29     0.6828     0.0235     0.0236     0.0235     100.00
sirius::Density::generate_valence                                 :     29   102.1389     3.5084     3.5419     3.5220      11.20
sirius::Density::initial_density                                  :      1     0.1116     0.1116     0.1116     0.1116      21.72
sirius::Density::symmetrize_density_matrix                        :     29     0.0334     0.0011     0.0012     0.0012     100.00
sirius::K_point::generate_gkvec                                   :      7     0.1052     0.0146     0.0152     0.0150       0.13
sirius::K_point::initialize                                       :      7     1.3207     0.1880     0.1895     0.1887      12.44
sirius::K_point_set::sync_band_energies                           :     29    88.5541     0.5632     9.6886     3.0536     100.00
sirius::Local_operator::apply_h                                   :   1656   205.5046     0.0016     0.7766     0.1241       6.51
sirius::Local_operator::prepare                                   :    240     2.6868     0.0038     0.5909     0.0112      61.06
sirius::Non_local_operator::Non_local_operator                    :    420     0.0116     0.0000     0.0000     0.0000     100.00
sirius::Non_local_operator::apply                                 :   3312    71.7463     0.0058     0.1220     0.0217     100.00
sirius::Periodic_function::inner                                  :     87     0.1766     0.0019     0.0021     0.0020      65.59
sirius::Potential::Potential                                      :      1     0.2844     0.2844     0.2844     0.2844      17.95
sirius::Potential::generate_D_operator_matrix                     :     30     0.7933     0.0249     0.0344     0.0264     100.00
sirius::Potential::generate_local_potential                       :      1     0.2333     0.2333     0.2333     0.2333       0.06
sirius::Radial_integrals|aug                                      :      1     0.0254     0.0254     0.0254     0.0254     100.00
sirius::Radial_integrals|beta                                     :      2     0.2317     0.1128     0.1190     0.1159     100.00
sirius::Radial_integrals|rho_core_pseudo                          :      1     0.0156     0.0156     0.0156     0.0156     100.00
sirius::Radial_integrals|rho_pseudo                               :      1     0.0155     0.0155     0.0155     0.0155     100.00
sirius::Radial_integrals|vloc                                     :      1     0.1812     0.1812     0.1812     0.1812     100.00
sirius::Simulation_context::initialize                            :      1     1.3789     1.3789     1.3789     1.3789       0.07
sirius::Simulation_context_base::initialize                       :      1     1.0489     1.0489     1.0489     1.0489      12.55
sirius::Simulation_context_base::make_periodic_function           :      3     0.0246     0.0063     0.0117     0.0082     100.00
sirius::Smooth_periodic_function::fft_transform                   :    151     5.4277     0.0101     0.0983     0.0359      80.63
sirius::Smooth_periodic_function::gather_f_pw                     :    120     1.5654     0.0034     0.5579     0.0130     100.00
sirius::Symmetry::symmetrize_function_pw                          :     29     0.6393     0.0196     0.0280     0.0220      17.09
sirius::Symmetry::symmetrize_function_pw|local                    :     29     0.0873     0.0030     0.0031     0.0030     100.00
+global_timer ( 1083.4624s, 0.02 % of self, 100.00 % of total)
|--qe|run_pwscf ( 1083.2920s, 99.98 %)
qe|electrons ( 1068.9964s, 0.00 % of self, 98.66 % of total)
|--qe|electrons|scf ( 1040.6080s, 97.34 %)
|--qe|electrons|init (   28.3865s, 2.66 %)
qe|electrons|init (   28.3865s, 18.14 % of self, 2.62 % of total)
|--sirius::Band::initialize_subspace (   22.5650s, 79.49 %)
|--sirius::Potential::Potential (    0.2844s, 1.00 %)
|--sirius::Smooth_periodic_function::fft_transform (    0.1303s, 0.46 %)
|--sirius::Density::initial_density (    0.1116s, 0.39 %)
|--sirius::Density::generate_pseudo_core_charge_density (    0.0717s, 0.25 %)
|--sirius::Smooth_periodic_function::gather_f_pw (    0.0388s, 0.14 %)
|--sirius::Potential::generate_D_operator_matrix (    0.0260s, 0.09 %)
|--sirius::DFT_ground_state::ewald_energy (    0.0101s, 0.04 %)
|--sirius::Band::Band (    0.0000s, 0.00 %)
qe|electrons|scf ( 1040.6080s, 0.02 % of self, 96.04 % of total)
|--sirius::Band::solve_for_kset (  786.7667s, 75.61 %)
|--qe|veff (  129.0935s, 12.41 %)
|--sirius::Density::generate_valence (  102.1389s, 9.82 %)
|--qe|mix (   20.3764s, 1.96 %)
|--sirius::Smooth_periodic_function::fft_transform (    0.9804s, 0.09 %)
|--sirius::DFT_ground_state::symmetrize (    0.9483s, 0.09 %)
|--sirius::Periodic_function::inner (    0.1158s, 0.01 %)
qe|mix (   20.3764s, 93.75 % of self, 1.88 % of total)
|--sirius::Smooth_periodic_function::fft_transform (    1.0064s, 4.94 %)
|--sirius::Smooth_periodic_function::gather_f_pw (    0.2674s, 1.31 %)
qe|run_pwscf ( 1083.2920s, 0.05 % of self, 99.98 % of total)
|--qe|run_pwscf|electrons ( 1068.9964s, 98.68 %)
|--qe|run_pwscf|punch (    8.8648s, 0.82 %)
|--qe|run_pwscf|setup_sirius (    2.7146s, 0.25 %)
|--qe|run_pwscf|init_run (    2.1369s, 0.20 %)
|--qe|run_pwscf|setup (    0.0141s, 0.00 %)
|--qe|run_pwscf|ions (    0.0000s, 0.00 %)
|--qe|run_pwscf|forces (    0.0000s, 0.00 %)
|--qe|run_pwscf|stress (    0.0000s, 0.00 %)
qe|run_pwscf|electrons ( 1068.9964s, 0.00 % of self, 98.66 % of total)
|--qe|electrons ( 1068.9964s, 100.00 %)
qe|veff (  129.0935s, 97.19 % of self, 11.91 % of total)
|--sirius::Smooth_periodic_function::fft_transform (    2.8608s, 2.22 %)
|--sirius::Potential::generate_D_operator_matrix (    0.7673s, 0.59 %)
sddk::FFT3D::transform (  261.9490s, 0.24 % of self, 24.18 % of total)
|--sddk::FFT3D::transform_xy (  196.9269s, 75.18 %)
|--sddk::FFT3D::transform_z (   64.4018s, 24.59 %)
sddk::FFT3D::transform_z (   64.4018s, 38.21 % of self, 5.94 % of total)
|--sddk::FFT3D::transform_z_serial (   39.7935s, 61.79 %)
sddk::wave_functions::orthogonalize (   73.7322s, 25.26 % of self, 6.81 % of total)
|--sddk::wave_functions::inner (   53.5490s, 72.63 %)
|--sddk::wave_functions::transform (    1.5600s, 2.12 %)
sirius::Band::apply_h_o (  340.4555s, 0.01 % of self, 31.42 % of total)
|--sirius::Local_operator::apply_h (  205.5046s, 60.36 %)
|--sirius::Non_local_operator::apply (   71.7463s, 21.07 %)
|--sirius::Beta_projectors_base::inner (   48.3994s, 14.22 %)
|--sirius::Beta_projectors_base::generate (   14.7660s, 4.34 %)
sirius::Band::diag_pseudo_potential (  696.3797s, 0.02 % of self, 64.27 % of total)
|--sirius::Band::diag_pseudo_potential_davidson (  694.7302s, 99.76 %)
|--sirius::Local_operator::prepare (    0.8258s, 0.12 %)
|--sddk::FFT3D::prepare (    0.6545s, 0.09 %)
|--sirius::Non_local_operator::Non_local_operator (    0.0111s, 0.00 %)
sirius::Band::diag_pseudo_potential_davidson (  694.7302s, 1.12 % of self, 64.12 % of total)
|--sirius::Band::diag_pseudo_potential_davidson|iter (  638.1753s, 91.86 %)
|--sirius::Band::get_h_diag (   14.1558s, 2.04 %)
|--sirius::Band::diag_pseudo_potential_davidson|alloc (   13.9005s, 2.00 %)
|--sirius::Band::get_o_diag (   13.5247s, 1.95 %)
|--sirius::Beta_projectors_base::dismiss (    7.1247s, 1.03 %)
|--sirius::Band::diag_pseudo_potential_davidson|wf (    0.0647s, 0.01 %)
sirius::Band::diag_pseudo_potential_davidson|alloc (   13.9005s, 89.19 % of self, 1.28 % of total)
|--sirius::Beta_projectors_base::prepare (    1.5027s, 10.81 %)
sirius::Band::diag_pseudo_potential_davidson|iter (  638.1753s, 0.01 % of self, 58.90 % of total)
|--sirius::Band::apply_h_o (  331.1049s, 51.88 %)
|--sirius::Band::diag_pseudo_potential_davidson|evp (  182.9499s, 28.67 %)
|--sddk::wave_functions::orthogonalize (   72.2254s, 11.32 %)
|--sirius::Band::residuals (   27.6050s, 4.33 %)
|--sirius::Band::set_subspace_mtrx (   23.0317s, 3.61 %)
|--sirius::Band::diag_pseudo_potential_davidson|update_phi (    1.2083s, 0.19 %)
sirius::Band::initialize_subspace (   22.5650s, 0.00 % of self, 2.08 % of total)
|--sirius::Band::initialize_subspace|kp (   22.5132s, 99.77 %)
|--sirius::Local_operator::prepare (    0.0512s, 0.23 %)
sirius::Band::initialize_subspace|kp (   22.5132s, 12.77 % of self, 2.08 % of total)
|--sirius::Band::apply_h_o (    9.3505s, 41.53 %)
|--sddk::matrix_storage::matrix_storage (    6.4111s, 28.48 %)
|--sirius::Band::initialize_subspace|kp|wf (    1.5729s, 6.99 %)
|--sddk::wave_functions::orthogonalize (    1.5068s, 6.69 %)
|--sirius::Band::set_subspace_mtrx (    0.6718s, 2.98 %)
|--sirius::Beta_projectors_base::prepare (    0.0521s, 0.23 %)
|--sirius::Local_operator::prepare (    0.0283s, 0.13 %)
|--sddk::wave_functions::transform (    0.0231s, 0.10 %)
|--sddk::FFT3D::prepare (    0.0212s, 0.09 %)
|--sirius::Beta_projectors_base::dismiss (    0.0006s, 0.00 %)
|--sirius::Non_local_operator::Non_local_operator (    0.0005s, 0.00 %)
sirius::Band::residuals (   27.6050s, 1.64 % of self, 2.55 % of total)
|--sirius::Band::residuals_aux (   25.0734s, 90.83 %)
|--sddk::wave_functions::transform (    2.0790s, 7.53 %)
sirius::Band::set_subspace_mtrx (   23.7035s, 2.35 % of self, 2.19 % of total)
|--sddk::wave_functions::inner (   23.1467s, 97.65 %)
sirius::Band::solve_for_kset (  786.7667s, 0.01 % of self, 72.62 % of total)
|--sirius::Band::diag_pseudo_potential (  696.3797s, 88.51 %)
|--sirius::K_point_set::sync_band_energies (   88.5541s, 11.26 %)
|--sirius::Local_operator::prepare (    1.7815s, 0.23 %)
sirius::Density::add_k_point_contribution_dm (   18.8730s, 2.74 % of self, 1.74 % of total)
|--sirius::Beta_projectors_base::inner (   15.3033s, 81.09 %)
|--sirius::Beta_projectors_base::generate (    1.5837s, 8.39 %)
|--sirius::Beta_projectors_base::prepare (    1.4233s, 7.54 %)
|--sirius::Beta_projectors_base::dismiss (    0.0459s, 0.24 %)
sirius::Density::add_k_point_contribution_rg (   70.5967s, 1.79 % of self, 6.52 % of total)
|--sddk::FFT3D::transform (   68.6919s, 97.30 %)
|--sddk::FFT3D::prepare (    0.6423s, 0.91 %)
sirius::Density::generate_valence (  102.1389s, 11.20 % of self, 9.43 % of total)
|--sirius::Density::add_k_point_contribution_rg (   70.5967s, 69.12 %)
|--sirius::Density::add_k_point_contribution_dm (   18.8730s, 18.48 %)
|--sirius::Density::augment (    0.6879s, 0.67 %)
|--sirius::Smooth_periodic_function::fft_transform (    0.2946s, 0.29 %)
|--sirius::Smooth_periodic_function::gather_f_pw (    0.1056s, 0.10 %)
|--sddk::FFT3D::prepare (    0.1038s, 0.10 %)
|--sirius::Density::symmetrize_density_matrix (    0.0334s, 0.03 %)
|--sddk::matrix_storage::remap_forward (    0.0011s, 0.00 %)
sirius::Local_operator::apply_h (  205.5046s, 6.51 % of self, 18.97 % of total)
|--sddk::FFT3D::transform (  192.1157s, 93.48 %)
|--sddk::matrix_storage::remap_forward (    0.0022s, 0.00 %)
|--sddk::matrix_storage::remap_backward (    0.0004s, 0.00 %)

     General routines

     Parallel routines

   This run was terminated on:  17: 5:31   8Aug2017

   JOB DONE.
Note: The following floating-point exceptions are signalling: IEEE_UNDERFLOW_FLAG IEEE_DENORMAL
Note: The following floating-point exceptions are signalling: IEEE_UNDERFLOW_FLAG IEEE_DENORMAL
Note: The following floating-point exceptions are signalling: IEEE_UNDERFLOW_FLAG IEEE_DENORMAL
Note: The following floating-point exceptions are signalling: IEEE_UNDERFLOW_FLAG IEEE_DENORMAL
Note: The following floating-point exceptions are signalling: IEEE_UNDERFLOW_FLAG IEEE_DENORMAL
Note: The following floating-point exceptions are signalling: IEEE_UNDERFLOW_FLAG IEEE_DENORMAL
Note: The following floating-point exceptions are signalling: IEEE_UNDERFLOW_FLAG IEEE_DENORMAL
Note: The following floating-point exceptions are signalling: IEEE_UNDERFLOW_FLAG IEEE_DENORMAL
Note: The following floating-point exceptions are signalling: IEEE_UNDERFLOW_FLAG IEEE_DENORMAL
Note: The following floating-point exceptions are signalling: IEEE_UNDERFLOW_FLAG IEEE_DENORMAL
Note: The following floating-point exceptions are signalling: IEEE_UNDERFLOW_FLAG IEEE_DENORMAL
Note: The following floating-point exceptions are signalling: IEEE_UNDERFLOW_FLAG IEEE_DENORMAL
Note: The following floating-point exceptions are signalling: IEEE_UNDERFLOW_FLAG IEEE_DENORMAL
Note: The following floating-point exceptions are signalling: IEEE_UNDERFLOW_FLAG IEEE_DENORMAL
Note: The following floating-point exceptions are signalling: IEEE_UNDERFLOW_FLAG IEEE_DENORMAL
Note: The following floating-point exceptions are signalling: IEEE_UNDERFLOW_FLAG IEEE_DENORMAL
Note: The following floating-point exceptions are signalling: IEEE_UNDERFLOW_FLAG IEEE_DENORMAL
Note: The following floating-point exceptions are signalling: IEEE_UNDERFLOW_FLAG IEEE_DENORMAL
Note: The following floating-point exceptions are signalling: IEEE_UNDERFLOW_FLAG IEEE_DENORMAL
Note: The following floating-point exceptions are signalling: IEEE_UNDERFLOW_FLAG IEEE_DENORMAL
Note: The following floating-point exceptions are signalling: IEEE_UNDERFLOW_FLAG IEEE_DENORMAL
Note: The following floating-point exceptions are signalling: IEEE_UNDERFLOW_FLAG IEEE_DENORMAL
Note: The following floating-point exceptions are signalling: IEEE_UNDERFLOW_FLAG IEEE_DENORMAL
Note: The following floating-point exceptions are signalling: IEEE_UNDERFLOW_FLAG IEEE_DENORMAL
Note: The following floating-point exceptions are signalling: IEEE_UNDERFLOW_FLAG IEEE_DENORMAL
Note: The following floating-point exceptions are signalling: IEEE_UNDERFLOW_FLAG IEEE_DENORMAL
Note: The following floating-point exceptions are signalling: IEEE_UNDERFLOW_FLAG IEEE_DENORMAL
Note: The following floating-point exceptions are signalling: IEEE_UNDERFLOW_FLAG IEEE_DENORMAL
Note: The following floating-point exceptions are signalling: IEEE_UNDERFLOW_FLAG IEEE_DENORMAL
Note: The following floating-point exceptions are signalling: IEEE_UNDERFLOW_FLAG IEEE_DENORMAL
Note: The following floating-point exceptions are signalling: IEEE_UNDERFLOW_FLAG IEEE_DENORMAL
Note: The following floating-point exceptions are signalling: IEEE_UNDERFLOW_FLAG IEEE_DENORMAL