     Program PWSCF v.6.1 starts on  8Aug2017 at 17:29: 5

     Current dimensions of program PWSCF are:
     Max number of different atomic species (ntypx) = 10
     Max number of k-points (npk) =  40000
     Max angular momentum in pseudopotentials (lmaxx) =  3

     Subspace diagonalization in iterative solution of the eigenvalue problem:
     a serial algorithm will be used

   Info: using nr1, nr2, nr3 values from input

     bravais-lattice index     =            0
     lattice parameter (alat)  =      31.4056  a.u.
     unit-cell volume          =   21903.1443 (a.u.)^3
     number of atoms/cell      =           54
     number of atomic types    =            2
     number of electrons       =       432.00
     number of Kohn-Sham states=          259
     kinetic-energy cutoff     =      45.0000  Ry
     charge density cutoff     =     360.0000  Ry
     convergence threshold     =      5.4E-07
     mixing beta               =       0.3500
     number of iterations used =            8  plain     mixing
     Exchange-correlation      = SLA  PW   PBE  PBE ( 1  4  3  4 0 0)

     celldm(1)=  31.405604  celldm(2)=   0.000000  celldm(3)=   0.000000
     celldm(4)=   0.000000  celldm(5)=   0.000000  celldm(6)=   0.000000

     crystal axes: (cart. coord. in units of alat)
               a(1) = (   1.000000   0.000000   0.000000 )
               a(2) = (  -0.500000   0.707107  -0.500000 )
               a(3) = (   0.000000   0.000000   1.000000 )

     reciprocal axes: (cart. coord. in units 2 pi/alat)
               b(1) = (  1.000000  0.707107 -0.000000 )
               b(2) = (  0.000000  1.414214  0.000000 )
               b(3) = ( -0.000000  0.707107  1.000000 )

     PseudoPot. # 1 for Cs read from file:
     ./pseudo/Cs_pbe_v1.uspp.F.UPF
     MD5 check sum: 3476d69cb178dfad3ffaa59df4e07ca4
     Pseudo is Ultrasoft + core correction, Zval =  9.0
     Generated by new atomic code, or converted to UPF format
     Using radial grid of  905 points,  6 beta functions with:
                l(1) =   0
                l(2) =   0
                l(3) =   1
                l(4) =   1
                l(5) =   2
                l(6) =   2
     Q(r) pseudized with  6 coefficients,  rinner =    1.500   1.500   1.500
                                                       1.500   1.500

     PseudoPot. # 2 for I  read from file:
     ./pseudo/I_pbe_v1.uspp.F.UPF
     MD5 check sum: 51366c2fb896752a147e77acbb9f6bcb
     Pseudo is Ultrasoft + core correction, Zval =  7.0
     Generated by new atomic code, or converted to UPF format
     Using radial grid of  893 points,  6 beta functions with:
                l(1) =   0
                l(2) =   0
                l(3) =   1
                l(4) =   1
                l(5) =   2
                l(6) =   2
     Q(r) pseudized with  8 coefficients,  rinner =    1.500   1.500   1.500
                                                       1.500   1.500

     atomic species   valence    mass     pseudopotential
        Cs             9.00   132.90545     Cs( 1.00)
        I              7.00   126.90447     I ( 1.00)

     No symmetry found

                                    s                        frac. trans.

      isym =  1     identity

 cryst.   s( 1) = (     1          0          0      )
                  (     0          1          0      )
                  (     0          0          1      )

 cart.    s( 1) = (  1.0000000  0.0000000  0.0000000 )
                  (  0.0000000  1.0000000  0.0000000 )
                  (  0.0000000  0.0000000  1.0000000 )

   Cartesian axes

     site n.     atom                  positions (a.u.)
         1           Cs  tau(   1) = (  15.7567088  22.0681150  15.6777486  )
         2           Cs  tau(   2) = (  15.5797094  22.1674162  -5.3125422  )
         3           Cs  tau(   3) = (  15.6206425  22.0820821   5.2125602  )
         4           Cs  tau(   4) = (  26.1253071   7.2862844  -5.1490631  )
         5           Cs  tau(   5) = (  26.1782224   7.2681475   5.1650487  )
         6           Cs  tau(   6) = (  -5.2654524   7.5321059  15.7738754  )
         7           Cs  tau(   7) = ( -10.4855889  14.9308094 -10.3868559  )
         8           Cs  tau(   8) = ( -10.3331288  14.7413908   0.0225040  )
         9           Cs  tau(   9) = (  20.8314272  14.9118750  10.4832802  )
        10           Cs  tau(  10) = (  10.3717088   0.0922588  31.3351213  )
        11           Cs  tau(  11) = (  -5.3749842  22.2061828  -5.1790158  )
        12           Cs  tau(  12) = (  10.3859172   0.0742297  21.0396323  )
        13           Cs  tau(  13) = (   5.2820790   7.5457824  -5.2327505  )
        14           Cs  tau(  14) = (   5.2097947   7.2549683   5.2112877  )
        15           Cs  tau(  15) = (   5.3835492   7.4213821  15.6883673  )
        16           Cs  tau(  16) = (  -0.0530397  14.7172458 -10.3572437  )
        17           Cs  tau(  17) = (  -0.0493768  14.6681664  -0.0419924  )
        18           Cs  tau(  18) = (   0.0421442  14.8785765  10.5935445  )
        19           Cs  tau(  19) = (  20.8907429   0.0815275   0.1185830  )
        20           Cs  tau(  20) = (  20.9432845   0.0812971  10.5958413  )
        21           Cs  tau(  21) = (  21.0032837   0.1358437  20.9411899  )
        22           Cs  tau(  22) = (  15.8206137   7.4246678  26.0792601  )
        23           Cs  tau(  23) = (  15.7807894   7.3931748   5.1050845  )
        24           Cs  tau(  24) = (  15.5726632   7.4630480  15.7501000  )
        25           Cs  tau(  25) = (  10.5880232  14.8435362 -10.3844368  )
        26           Cs  tau(  26) = (  10.5710729  14.8772789  -0.0841392  )
        27           Cs  tau(  27) = (  10.5917441  14.8407709  10.3886828  )
        28           I   tau(  28) = (   5.2490891   0.1503857   5.2298787  )
        29           I   tau(  29) = (   5.1073247   0.0035600  15.7848246  )
        30           I   tau(  30) = (   5.1271788   0.1060008  26.1836125  )
        31           I   tau(  31) = (   0.0828421   7.5269935   0.0214818  )
        32           I   tau(  32) = (   0.0465070   7.2925686  10.3756093  )
        33           I   tau(  33) = (   0.0120975   7.4268868  21.0857554  )
        34           I   tau(  34) = (  -5.2343842  14.7976706  -5.3852799  )
        35           I   tau(  35) = (  -5.1763544  14.7510278   5.1053663  )
        36           I   tau(  36) = (  -5.1102776  14.8609467  15.7685486  )
        37           I   tau(  37) = (   0.1247830  22.1725965 -10.3904807  )
        38           I   tau(  38) = (  15.6351237   0.1330706  15.6789976  )
        39           I   tau(  39) = (  15.8053616   0.0280091  26.2788165  )
        40           I   tau(  40) = (  10.3619593   7.3951589  -0.1069788  )
        41           I   tau(  41) = (  10.5692270   7.4208203  10.5797802  )
        42           I   tau(  42) = (  10.3714655   7.2933621  20.9764299  )
        43           I   tau(  43) = (   5.1095655  14.8899995  -5.2402451  )
        44           I   tau(  44) = (   5.1208868  14.8587383   5.1500994  )
        45           I   tau(  45) = (   5.1460214  14.8064135  15.8255404  )
        46           I   tau(  46) = (  10.5842630  22.1201890 -10.5121872  )
        47           I   tau(  47) = (  10.3322788  22.1437979   0.0167324  )
        48           I   tau(  48) = (  26.2273575   0.0969202  26.0697348  )
        49           I   tau(  49) = (  20.8014627   7.3355475  -0.0003023  )
        50           I   tau(  50) = (  20.8961625   7.3353978  10.5977473  )
        51           I   tau(  51) = (  20.8597873   7.5288633  20.9073676  )
        52           I   tau(  52) = (  15.7971746  14.9181078  -5.2011424  )
        53           I   tau(  53) = (  15.8408514  14.8659140   5.2268221  )
        54           I   tau(  54) = (  15.6550028  14.9414326  15.6593713  )

   Crystallographic axes

     site n.     atom                  positions (cryst. coord.)
         1           Cs  tau(   1) = (  0.9985868  0.9937407  0.9960726  )
         2           Cs  tau(   2) = (  0.9951867  0.9982123  0.3299471  )
         3           Cs  tau(   3) = (  0.9945687  0.9943697  0.6631603  )
         4           Cs  tau(   4) = (  0.9959206  0.3281058  0.0000993  )
         5           Cs  tau(   5) = (  0.9971971  0.3272891  0.3281072  )
         6           Cs  tau(   6) = (  0.0019280  0.3391753  0.6718507  )
         7           Cs  tau(   7) = (  0.0022954  0.6723435  0.0054392  )
         8           Cs  tau(   8) = (  0.0028851  0.6638138  0.3326235  )
         9           Cs  tau(   9) = (  0.9990483  0.6714908  0.6695483  )
        10           Cs  tau(  10) = (  0.3323275  0.0041545  0.9998330  )
        11           Cs  tau(  11) = (  0.3288317  0.9999580  0.3350716  )
        12           Cs  tau(  12) = (  0.3323740  0.0033426  0.6716037  )
        13           Cs  tau(  13) = (  0.3380847  0.3397912  0.0032772  )
        14           Cs  tau(  14) = (  0.3292352  0.3266957  0.3292828  )
        15           Cs  tau(  15) = (  0.3385147  0.3341894  0.6666351  )
        16           Cs  tau(  16) = (  0.3296744  0.6627266  0.0015736  )
        17           Cs  tau(  17) = (  0.3286860  0.6605165  0.3289212  )
        18           Cs  tau(  18) = (  0.3363376  0.6699914  0.6723095  )
        19           Cs  tau(  19) = (  0.6670272  0.0036712  0.0056115  )
        20           Cs  tau(  20) = (  0.6686950  0.0036609  0.3392174  )
        21           Cs  tau(  21) = (  0.6718336  0.0061171  0.6698564  )
        22           Cs  tau(  22) = (  0.6709200  0.3343373  0.9975701  )
        23           Cs  tau(  23) = (  0.6689428  0.3329192  0.3290129  )
        24           Cs  tau(  24) = (  0.6638890  0.3360656  0.6695388  )
        25           Cs  tau(  25) = (  0.6713448  0.6684135  0.0035512  )
        26           Cs  tau(  26) = (  0.6715648  0.6699330  0.3322874  )
        27           Cs  tau(  27) = (  0.6714010  0.6682890  0.6649352  )
        28           I   tau(  28) = (  0.1705246  0.0067720  0.1699129  )
        29           I   tau(  29) = (  0.1627048  0.0001603  0.5026919  )
        30           I   tau(  30) = (  0.1656435  0.0047733  0.8361108  )
        31           I   tau(  31) = (  0.1721104  0.3389451  0.1701566  )
        32           I   tau(  32) = (  0.1656753  0.3283888  0.4945689  )
        33           I   tau(  33) = (  0.1676038  0.3344373  0.8386197  )
        34           I   tau(  34) = (  0.1665037  0.6663482  0.1616990  )
        35           I   tau(  35) = (  0.1673013  0.6642478  0.4946862  )
        36           I   tau(  36) = (  0.1718801  0.6691975  0.8366922  )
        37           I   tau(  37) = (  0.5031961  0.9984456  0.1683748  )
        38           I   tau(  38) = (  0.5008411  0.0059923  0.5022382  )
        39           I   tau(  39) = (  0.5038963  0.0012613  0.8373863  )
        40           I   tau(  40) = (  0.4964441  0.3330085  0.1630979  )
        41           I   tau(  41) = (  0.5036216  0.3341641  0.5039576  )
        42           I   tau(  42) = (  0.4944548  0.3284246  0.8321322  )
        43           I   tau(  43) = (  0.4979489  0.6705058  0.1683959  )
[...]
sddk::wave_functions::transform                                   :   6369     9.6395     0.0001     0.0705     0.0015      98.97
sddk::wave_functions::transform|init                              :   6369     0.0997     0.0000     0.0000     0.0000     100.00
sirius::Augmentation_operator::generate_pw_coeffs                 :      2     0.4937     0.2450     0.2487     0.2468     100.00
sirius::Band::apply_h_o                                           :   3361   678.5447     0.0247     1.7196     0.2019       0.01
sirius::Band::diag_pseudo_potential                               :    406  1390.7950     1.2880     8.8266     3.4256       0.02
sirius::Band::diag_pseudo_potential_davidson                      :    406  1387.5036     1.2801     8.8187     3.4175       1.12
sirius::Band::diag_pseudo_potential_davidson|alloc                :    406    27.9174     0.0668     0.0789     0.0688      89.14
sirius::Band::diag_pseudo_potential_davidson|evp                  :   3347   367.7595     0.0403     0.2242     0.1099     100.00
sirius::Band::diag_pseudo_potential_davidson|iter                 :    406  1274.2852     1.0186     8.4596     3.1386       0.01
sirius::Band::diag_pseudo_potential_davidson|update_phi           :    420     2.3839     0.0032     0.0750     0.0057       0.60
sirius::Band::diag_pseudo_potential_davidson|wf                   :    406     0.1295     0.0000     0.0626     0.0003      99.37
sirius::Band::get_h_diag                                          :    406    28.4088     0.0687     0.1055     0.0700     100.00
sirius::Band::get_o_diag                                          :    406    27.1838     0.0659     0.1050     0.0670     100.00
sirius::Band::initialize_subspace                                 :      1    44.5561    44.5561    44.5561    44.5561       0.00
sirius::Band::initialize_subspace|kp                              :     14    44.5049     2.9800     3.6109     3.1789      12.84
sirius::Band::initialize_subspace|kp|wf                           :     14     3.1924     0.2231     0.2314     0.2280     100.00
sirius::Band::residuals                                           :   3318    54.8443     0.0000     0.1121     0.0165       1.63
sirius::Band::residuals_aux                                       :   2980    49.8449     0.0044     0.1042     0.0167     100.00
sirius::Band::set_subspace_mtrx                                   :   3361    47.4633     0.0015     0.1462     0.0141       2.34
sirius::Band::solve_for_kset                                      :     29  1505.5980    20.1386   113.7974    51.9172       0.00
sirius::Beta_projectors::Beta_projectors                          :     14     0.4164     0.0294     0.0301     0.0297       0.03
sirius::Beta_projectors::generate_pw_coefs_t                      :     14     0.4163     0.0293     0.0301     0.0297     100.00
sirius::Beta_projectors_base::dismiss                             :    826    14.1737     0.0001     0.0551     0.0172     100.00
sirius::Beta_projectors_base::generate                            :   3767    32.4969     0.0073     0.5257     0.0086     100.00
sirius::Beta_projectors_base::inner                               :   3767   129.1657     0.0040     0.1892     0.0343     100.00
sirius::Beta_projectors_base::prepare                             :    826     6.0009     0.0069     0.0119     0.0073     100.00
sirius::DFT_ground_state::ewald_energy                            :      1     0.0366     0.0366     0.0366     0.0366     100.00
sirius::DFT_ground_state::symmetrize                              :     29     0.9588     0.0322     0.0355     0.0331       0.66
sirius::Density::add_k_point_contribution_dm                      :    406    38.2993     0.0706     0.1032     0.0943       2.69
sirius::Density::add_k_point_contribution_rg                      :    406   141.1651     0.3447     0.3587     0.3477       1.79
sirius::Density::augment                                          :     29     1.2526     0.0431     0.0433     0.0432       0.60
sirius::Density::generate_pseudo_core_charge_density              :      1     0.0790     0.0790     0.0790     0.0790       0.21
sirius::Density::generate_rho_aug                                 :     29     1.2451     0.0429     0.0430     0.0429     100.00
sirius::Density::generate_valence                                 :     29   204.4658     7.0342     7.0867     7.0505      11.35
sirius::Density::initial_density                                  :      1     0.1190     0.1190     0.1190     0.1190      21.24
sirius::Density::symmetrize_density_matrix                        :     29     0.0333     0.0011     0.0012     0.0011     100.00
sirius::K_point::generate_gkvec                                   :     14     0.2106     0.0146     0.0153     0.0150       0.13
sirius::K_point::initialize                                       :     14     2.6302     0.1869     0.1884     0.1879      12.41
sirius::K_point_set::sync_band_energies                           :     29   113.2303     0.0003    13.4954     3.9045     100.00
sirius::Local_operator::apply_h                                   :   3361   409.4394     0.0016     0.7807     0.1218       6.41
sirius::Local_operator::prepare                                   :    450     3.2717     0.0039     0.3404     0.0073      76.09
sirius::Non_local_operator::Non_local_operator                    :    840     0.0232     0.0000     0.0000     0.0000     100.00
sirius::Non_local_operator::apply                                 :   6722   141.6826     0.0057     0.1195     0.0211     100.00
sirius::Periodic_function::inner                                  :     87     0.1774     0.0019     0.0022     0.0020      65.43
sirius::Potential::Potential                                      :      1     0.2921     0.2921     0.2921     0.2921      17.58
sirius::Potential::generate_D_operator_matrix                     :     30     1.3476     0.0435     0.0464     0.0449     100.00
sirius::Potential::generate_local_potential                       :      1     0.2408     0.2408     0.2408     0.2408       0.08
sirius::Radial_integrals|aug                                      :      1     0.0323     0.0323     0.0323     0.0323     100.00
sirius::Radial_integrals|beta                                     :      2     0.2316     0.1127     0.1189     0.1158     100.00
sirius::Radial_integrals|rho_core_pseudo                          :      1     0.0155     0.0155     0.0155     0.0155     100.00
sirius::Radial_integrals|rho_pseudo                               :      1     0.0155     0.0155     0.0155     0.0155     100.00
sirius::Radial_integrals|vloc                                     :      1     0.1812     0.1812     0.1812     0.1812     100.00
sirius::Simulation_context::initialize                            :      1     1.4282     1.4282     1.4282     1.4282       0.06
sirius::Simulation_context_base::initialize                       :      1     0.9336     0.9336     0.9336     0.9336       2.89
sirius::Simulation_context_base::make_periodic_function           :      3     0.0496     0.0128     0.0236     0.0165     100.00
sirius::Smooth_periodic_function::fft_transform                   :    151     4.7396     0.0101     0.0966     0.0314      77.82
sirius::Smooth_periodic_function::gather_f_pw                     :    120     1.2723     0.0031     0.3074     0.0106     100.00
sirius::Symmetry::symmetrize_function_pw                          :     29     0.6723     0.0224     0.0254     0.0232      16.37
sirius::Symmetry::symmetrize_function_pw|local                    :     29     0.1667     0.0057     0.0058     0.0057     100.00
+global_timer ( 1925.4775s, 0.01 % of self, 100.00 % of total)
|--qe|run_pwscf ( 1925.3026s, 99.99 %)
qe|electrons ( 1913.1580s, 0.00 % of self, 99.36 % of total)
|--qe|electrons|scf ( 1862.7379s, 97.36 %)
|--qe|electrons|init (   50.4130s, 2.64 %)
qe|electrons|init (   50.4130s, 10.17 % of self, 2.62 % of total)
|--sirius::Band::initialize_subspace (   44.5561s, 88.38 %)
|--sirius::Potential::Potential (    0.2921s, 0.58 %)
|--sirius::Density::initial_density (    0.1190s, 0.24 %)
|--sirius::Smooth_periodic_function::fft_transform (    0.1029s, 0.20 %)
|--sirius::Density::generate_pseudo_core_charge_density (    0.0790s, 0.16 %)
|--sirius::Smooth_periodic_function::gather_f_pw (    0.0543s, 0.11 %)
|--sirius::Potential::generate_D_operator_matrix (    0.0450s, 0.09 %)
|--sirius::DFT_ground_state::ewald_energy (    0.0366s, 0.07 %)
|--sirius::Band::Band (    0.0000s, 0.00 %)
qe|electrons|scf ( 1862.7379s, 0.01 % of self, 96.74 % of total)
|--sirius::Band::solve_for_kset ( 1505.5980s, 80.83 %)
|--sirius::Density::generate_valence (  204.4658s, 10.98 %)
|--qe|veff (  130.3477s, 7.00 %)
|--qe|mix (   20.0989s, 1.08 %)
|--sirius::Smooth_periodic_function::fft_transform (    0.9660s, 0.05 %)
|--sirius::DFT_ground_state::symmetrize (    0.9588s, 0.05 %)
|--sirius::Periodic_function::inner (    0.1161s, 0.01 %)
qe|mix (   20.0989s, 93.80 % of self, 1.04 % of total)
|--sirius::Smooth_periodic_function::fft_transform (    0.9872s, 4.91 %)
|--sirius::Smooth_periodic_function::gather_f_pw (    0.2585s, 1.29 %)
qe|run_pwscf ( 1925.3026s, 0.03 % of self, 99.99 % of total)
|--qe|run_pwscf|electrons ( 1913.1580s, 99.37 %)
|--qe|run_pwscf|punch (    5.1869s, 0.27 %)
|--qe|run_pwscf|setup_sirius (    4.0723s, 0.21 %)
|--qe|run_pwscf|init_run (    2.2056s, 0.11 %)
|--qe|run_pwscf|setup (    0.0119s, 0.00 %)
|--qe|run_pwscf|ions (    0.0000s, 0.00 %)
|--qe|run_pwscf|forces (    0.0000s, 0.00 %)
|--qe|run_pwscf|stress (    0.0000s, 0.00 %)
qe|run_pwscf|electrons ( 1913.1580s, 0.00 % of self, 99.36 % of total)
|--qe|electrons ( 1913.1580s, 100.00 %)
qe|veff (  130.3477s, 97.29 % of self, 6.77 % of total)
|--sirius::Smooth_periodic_function::fft_transform (    2.2354s, 1.71 %)
|--sirius::Potential::generate_D_operator_matrix (    1.3026s, 1.00 %)
sddk::FFT3D::transform (  521.6703s, 0.23 % of self, 27.09 % of total)
|--sddk::FFT3D::transform_xy (  392.9162s, 75.32 %)
|--sddk::FFT3D::transform_z (  127.5784s, 24.46 %)
sddk::FFT3D::transform_z (  127.5784s, 38.23 % of self, 6.63 % of total)
|--sddk::FFT3D::transform_z_serial (   78.8104s, 61.77 %)
sddk::wave_functions::orthogonalize (  145.7369s, 25.33 % of self, 7.57 % of total)
|--sddk::wave_functions::inner (  105.7059s, 72.53 %)
|--sddk::wave_functions::transform (    3.1199s, 2.14 %)
sirius::Band::apply_h_o (  678.5447s, 0.01 % of self, 35.24 % of total)
|--sirius::Local_operator::apply_h (  409.4394s, 60.34 %)
|--sirius::Non_local_operator::apply (  141.6826s, 20.88 %)
|--sirius::Beta_projectors_base::inner (   98.0250s, 14.45 %)
|--sirius::Beta_projectors_base::generate (   29.3206s, 4.32 %)
sirius::Band::diag_pseudo_potential ( 1390.7950s, 0.02 % of self, 72.23 % of total)
|--sirius::Band::diag_pseudo_potential_davidson ( 1387.5036s, 99.76 %)
|--sirius::Local_operator::prepare (    1.6405s, 0.12 %)
|--sddk::FFT3D::prepare (    1.3151s, 0.09 %)
|--sirius::Non_local_operator::Non_local_operator (    0.0222s, 0.00 %)
sirius::Band::diag_pseudo_potential_davidson ( 1387.5036s, 1.12 % of self, 72.06 % of total)
|--sirius::Band::diag_pseudo_potential_davidson|iter ( 1274.2852s, 91.84 %)
|--sirius::Band::get_h_diag (   28.4088s, 2.05 %)
|--sirius::Band::diag_pseudo_potential_davidson|alloc (   27.9174s, 2.01 %)
|--sirius::Band::get_o_diag (   27.1838s, 1.96 %)
|--sirius::Beta_projectors_base::dismiss (   14.0854s, 1.02 %)
|--sirius::Band::diag_pseudo_potential_davidson|wf (    0.1295s, 0.01 %)
sirius::Band::diag_pseudo_potential_davidson|alloc (   27.9174s, 89.14 % of self, 1.45 % of total)
|--sirius::Beta_projectors_base::prepare (    3.0321s, 10.86 %)
sirius::Band::diag_pseudo_potential_davidson|iter ( 1274.2852s, 0.01 % of self, 66.18 % of total)
|--sirius::Band::apply_h_o (  660.3390s, 51.82 %)
|--sirius::Band::diag_pseudo_potential_davidson|evp (  367.7595s, 28.86 %)
|--sddk::wave_functions::orthogonalize (  142.7566s, 11.20 %)
|--sirius::Band::residuals (   54.8443s, 4.30 %)
|--sirius::Band::set_subspace_mtrx (   46.1043s, 3.62 %)
|--sirius::Band::diag_pseudo_potential_davidson|update_phi (    2.3839s, 0.19 %)
sirius::Band::initialize_subspace (   44.5561s, 0.00 % of self, 2.31 % of total)
|--sirius::Band::initialize_subspace|kp (   44.5049s, 99.88 %)
|--sirius::Local_operator::prepare (    0.0506s, 0.11 %)
sirius::Band::initialize_subspace|kp (   44.5049s, 12.84 % of self, 2.31 % of total)
|--sirius::Band::apply_h_o (   18.2057s, 40.91 %)
|--sddk::matrix_storage::matrix_storage (   12.8020s, 28.77 %)
|--sirius::Band::initialize_subspace|kp|wf (    3.1924s, 7.17 %)
|--sddk::wave_functions::orthogonalize (    2.9803s, 6.70 %)
|--sirius::Band::set_subspace_mtrx (    1.3590s, 3.05 %)
|--sirius::Beta_projectors_base::prepare (    0.1044s, 0.23 %)
|--sirius::Local_operator::prepare (    0.0563s, 0.13 %)
|--sddk::wave_functions::transform (    0.0453s, 0.10 %)
|--sddk::FFT3D::prepare (    0.0426s, 0.10 %)
|--sirius::Beta_projectors_base::dismiss (    0.0013s, 0.00 %)
|--sirius::Non_local_operator::Non_local_operator (    0.0010s, 0.00 %)
sirius::Band::residuals (   54.8443s, 1.63 % of self, 2.85 % of total)
|--sirius::Band::residuals_aux (   49.8449s, 90.88 %)
|--sddk::wave_functions::transform (    4.1046s, 7.48 %)
sirius::Band::set_subspace_mtrx (   47.4633s, 2.34 % of self, 2.47 % of total)
|--sddk::wave_functions::inner (   46.3528s, 97.66 %)
sirius::Band::solve_for_kset ( 1505.5980s, 0.00 % of self, 78.19 % of total)
|--sirius::Band::diag_pseudo_potential ( 1390.7950s, 92.37 %)
|--sirius::K_point_set::sync_band_energies (  113.2303s, 7.52 %)
|--sirius::Local_operator::prepare (    1.5243s, 0.10 %)
sirius::Density::add_k_point_contribution_dm (   38.2993s, 2.69 % of self, 1.99 % of total)
|--sirius::Beta_projectors_base::inner (   31.1406s, 81.31 %)
|--sirius::Beta_projectors_base::generate (    3.1763s, 8.29 %)
|--sirius::Beta_projectors_base::prepare (    2.8644s, 7.48 %)
|--sirius::Beta_projectors_base::dismiss (    0.0871s, 0.23 %)
sirius::Density::add_k_point_contribution_rg (  141.1651s, 1.79 % of self, 7.33 % of total)
|--sddk::FFT3D::transform (  137.3555s, 97.30 %)
|--sddk::FFT3D::prepare (    1.2820s, 0.91 %)
sirius::Density::generate_valence (  204.4658s, 11.35 % of self, 10.62 % of total)
|--sirius::Density::add_k_point_contribution_rg (  141.1651s, 69.04 %)
|--sirius::Density::add_k_point_contribution_dm (   38.2993s, 18.73 %)
|--sirius::Density::augment (    1.2526s, 0.61 %)
|--sirius::Smooth_periodic_function::fft_transform (    0.2968s, 0.15 %)
|--sddk::FFT3D::prepare (    0.1041s, 0.05 %)
|--sirius::Smooth_periodic_function::gather_f_pw (    0.0954s, 0.05 %)
|--sirius::Density::symmetrize_density_matrix (    0.0333s, 0.02 %)
|--sddk::matrix_storage::remap_forward (    0.0023s, 0.00 %)
sirius::Local_operator::apply_h (  409.4394s, 6.41 % of self, 21.26 % of total)
|--sddk::FFT3D::transform (  383.1739s, 93.59 %)
|--sddk::matrix_storage::remap_forward (    0.0041s, 0.00 %)
|--sddk::matrix_storage::remap_backward (    0.0009s, 0.00 %)

     General routines

     Parallel routines

   This run was terminated on:  18: 1:12   8Aug2017

   JOB DONE.
Note: The following floating-point exceptions are signalling: IEEE_UNDERFLOW_FLAG IEEE_DENORMAL
Note: The following floating-point exceptions are signalling: IEEE_UNDERFLOW_FLAG IEEE_DENORMAL
Note: The following floating-point exceptions are signalling: IEEE_UNDERFLOW_FLAG IEEE_DENORMAL
Note: The following floating-point exceptions are signalling: IEEE_UNDERFLOW_FLAG IEEE_DENORMAL
Note: The following floating-point exceptions are signalling: IEEE_UNDERFLOW_FLAG IEEE_DENORMAL
Note: The following floating-point exceptions are signalling: IEEE_UNDERFLOW_FLAG IEEE_DENORMAL
Note: The following floating-point exceptions are signalling: IEEE_UNDERFLOW_FLAG IEEE_DENORMAL
Note: The following floating-point exceptions are signalling: IEEE_UNDERFLOW_FLAG IEEE_DENORMAL
Note: The following floating-point exceptions are signalling: IEEE_UNDERFLOW_FLAG IEEE_DENORMAL
Note: The following floating-point exceptions are signalling: IEEE_UNDERFLOW_FLAG IEEE_DENORMAL
Note: The following floating-point exceptions are signalling: IEEE_UNDERFLOW_FLAG IEEE_DENORMAL
Note: The following floating-point exceptions are signalling: IEEE_UNDERFLOW_FLAG IEEE_DENORMAL
Note: The following floating-point exceptions are signalling: IEEE_UNDERFLOW_FLAG IEEE_DENORMAL
Note: The following floating-point exceptions are signalling: IEEE_UNDERFLOW_FLAG IEEE_DENORMAL
Note: The following floating-point exceptions are signalling: IEEE_UNDERFLOW_FLAG IEEE_DENORMAL
Note: The following floating-point exceptions are signalling: IEEE_UNDERFLOW_FLAG IEEE_DENORMAL