     Program PWSCF v.6.1 starts on  9Aug2017 at  9:32:54

     Current dimensions of program PWSCF are:
     Max number of different atomic species (ntypx) = 10
     Max number of k-points (npk) =  40000
     Max angular momentum in pseudopotentials (lmaxx) =  3

     Subspace diagonalization in iterative solution of the eigenvalue problem:
     a serial algorithm will be used

   Info: using nr1, nr2, nr3 values from input

     bravais-lattice index     =            0
     lattice parameter (alat)  =      31.4056  a.u.
     unit-cell volume          =   21903.1443 (a.u.)^3
     number of atoms/cell      =           54
     number of atomic types    =            2
     number of electrons       =       432.00
     number of Kohn-Sham states=          259
     kinetic-energy cutoff     =      45.0000  Ry
     charge density cutoff     =     360.0000  Ry
     convergence threshold     =      5.4E-07
     mixing beta               =       0.3500
     number of iterations used =            8  plain     mixing
     Exchange-correlation      = SLA  PW   PBE  PBE ( 1  4  3  4 0 0)

     celldm(1)=  31.405604  celldm(2)=   0.000000  celldm(3)=   0.000000
     celldm(4)=   0.000000  celldm(5)=   0.000000  celldm(6)=   0.000000

     crystal axes: (cart. coord. in units of alat)
               a(1) = (   1.000000   0.000000   0.000000 )
               a(2) = (  -0.500000   0.707107  -0.500000 )
               a(3) = (   0.000000   0.000000   1.000000 )

     reciprocal axes: (cart. coord. in units 2 pi/alat)
               b(1) = (  1.000000  0.707107 -0.000000 )
               b(2) = (  0.000000  1.414214  0.000000 )
               b(3) = ( -0.000000  0.707107  1.000000 )

     PseudoPot. # 1 for Cs read from file:
     ./pseudo/Cs_pbe_v1.uspp.F.UPF
     MD5 check sum: 3476d69cb178dfad3ffaa59df4e07ca4
     Pseudo is Ultrasoft + core correction, Zval =  9.0
     Generated by new atomic code, or converted to UPF format
     Using radial grid of  905 points,  6 beta functions with:
                l(1) =   0
                l(2) =   0
                l(3) =   1
                l(4) =   1
                l(5) =   2
                l(6) =   2
     Q(r) pseudized with  6 coefficients,  rinner =    1.500   1.500   1.500
                                                       1.500   1.500

     PseudoPot. # 2 for I  read from file:
     ./pseudo/I_pbe_v1.uspp.F.UPF
     MD5 check sum: 51366c2fb896752a147e77acbb9f6bcb
     Pseudo is Ultrasoft + core correction, Zval =  7.0
     Generated by new atomic code, or converted to UPF format
     Using radial grid of  893 points,  6 beta functions with:
                l(1) =   0
                l(2) =   0
                l(3) =   1
                l(4) =   1
                l(5) =   2
                l(6) =   2
     Q(r) pseudized with  8 coefficients,  rinner =    1.500   1.500   1.500
                                                       1.500   1.500

     atomic species   valence    mass     pseudopotential
        Cs             9.00   132.90545     Cs( 1.00)
        I              7.00   126.90447     I ( 1.00)

     No symmetry found

                                    s                        frac. trans.

      isym =  1     identity

 cryst.   s( 1) = (     1          0          0      )
                  (     0          1          0      )
                  (     0          0          1      )

 cart.    s( 1) = (  1.0000000  0.0000000  0.0000000 )
                  (  0.0000000  1.0000000  0.0000000 )
                  (  0.0000000  0.0000000  1.0000000 )

   Cartesian axes

     site n.     atom                  positions (a.u.)
         1           Cs  tau(   1) = (  15.7567088  22.0681150  15.6777486  )
         2           Cs  tau(   2) = (  15.5797094  22.1674162  -5.3125422  )
         3           Cs  tau(   3) = (  15.6206425  22.0820821   5.2125602  )
         4           Cs  tau(   4) = (  26.1253071   7.2862844  -5.1490631  )
         5           Cs  tau(   5) = (  26.1782224   7.2681475   5.1650487  )
         6           Cs  tau(   6) = (  -5.2654524   7.5321059  15.7738754  )
         7           Cs  tau(   7) = ( -10.4855889  14.9308094 -10.3868559  )
         8           Cs  tau(   8) = ( -10.3331288  14.7413908   0.0225040  )
         9           Cs  tau(   9) = (  20.8314272  14.9118750  10.4832802  )
        10           Cs  tau(  10) = (  10.3717088   0.0922588  31.3351213  )
        11           Cs  tau(  11) = (  -5.3749842  22.2061828  -5.1790158  )
        12           Cs  tau(  12) = (  10.3859172   0.0742297  21.0396323  )
        13           Cs  tau(  13) = (   5.2820790   7.5457824  -5.2327505  )
        14           Cs  tau(  14) = (   5.2097947   7.2549683   5.2112877  )
        15           Cs  tau(  15) = (   5.3835492   7.4213821  15.6883673  )
        16           Cs  tau(  16) = (  -0.0530397  14.7172458 -10.3572437  )
        17           Cs  tau(  17) = (  -0.0493768  14.6681664  -0.0419924  )
        18           Cs  tau(  18) = (   0.0421442  14.8785765  10.5935445  )
        19           Cs  tau(  19) = (  20.8907429   0.0815275   0.1185830  )
        20           Cs  tau(  20) = (  20.9432845   0.0812971  10.5958413  )
        21           Cs  tau(  21) = (  21.0032837   0.1358437  20.9411899  )
        22           Cs  tau(  22) = (  15.8206137   7.4246678  26.0792601  )
        23           Cs  tau(  23) = (  15.7807894   7.3931748   5.1050845  )
        24           Cs  tau(  24) = (  15.5726632   7.4630480  15.7501000  )
        25           Cs  tau(  25) = (  10.5880232  14.8435362 -10.3844368  )
        26           Cs  tau(  26) = (  10.5710729  14.8772789  -0.0841392  )
        27           Cs  tau(  27) = (  10.5917441  14.8407709  10.3886828  )
        28           I   tau(  28) = (   5.2490891   0.1503857   5.2298787  )
        29           I   tau(  29) = (   5.1073247   0.0035600  15.7848246  )
        30           I   tau(  30) = (   5.1271788   0.1060008  26.1836125  )
        31           I   tau(  31) = (   0.0828421   7.5269935   0.0214818  )
        32           I   tau(  32) = (   0.0465070   7.2925686  10.3756093  )
        33           I   tau(  33) = (   0.0120975   7.4268868  21.0857554  )
        34           I   tau(  34) = (  -5.2343842  14.7976706  -5.3852799  )
        35           I   tau(  35) = (  -5.1763544  14.7510278   5.1053663  )
        36           I   tau(  36) = (  -5.1102776  14.8609467  15.7685486  )
        37           I   tau(  37) = (   0.1247830  22.1725965 -10.3904807  )
        38           I   tau(  38) = (  15.6351237   0.1330706  15.6789976  )
        39           I   tau(  39) = (  15.8053616   0.0280091  26.2788165  )
        40           I   tau(  40) = (  10.3619593   7.3951589  -0.1069788  )
        41           I   tau(  41) = (  10.5692270   7.4208203  10.5797802  )
        42           I   tau(  42) = (  10.3714655   7.2933621  20.9764299  )
        43           I   tau(  43) = (   5.1095655  14.8899995  -5.2402451  )
        44           I   tau(  44) = (   5.1208868  14.8587383   5.1500994  )
        45           I   tau(  45) = (   5.1460214  14.8064135  15.8255404  )
        46           I   tau(  46) = (  10.5842630  22.1201890 -10.5121872  )
        47           I   tau(  47) = (  10.3322788  22.1437979   0.0167324  )
        48           I   tau(  48) = (  26.2273575   0.0969202  26.0697348  )
        49           I   tau(  49) = (  20.8014627   7.3355475  -0.0003023  )
        50           I   tau(  50) = (  20.8961625   7.3353978  10.5977473  )
        51           I   tau(  51) = (  20.8597873   7.5288633  20.9073676  )
        52           I   tau(  52) = (  15.7971746  14.9181078  -5.2011424  )
        53           I   tau(  53) = (  15.8408514  14.8659140   5.2268221  )
        54           I   tau(  54) = (  15.6550028  14.9414326  15.6593713  )

   Crystallographic axes

     site n.     atom                  positions (cryst. coord.)
         1           Cs  tau(   1) = (  0.9985868  0.9937407  0.9960726  )
         2           Cs  tau(   2) = (  0.9951867  0.9982123  0.3299471  )
         3           Cs  tau(   3) = (  0.9945687  0.9943697  0.6631603  )
         4           Cs  tau(   4) = (  0.9959206  0.3281058  0.0000993  )
         5           Cs  tau(   5) = (  0.9971971  0.3272891  0.3281072  )
         6           Cs  tau(   6) = (  0.0019280  0.3391753  0.6718507  )
         7           Cs  tau(   7) = (  0.0022954  0.6723435  0.0054392  )
         8           Cs  tau(   8) = (  0.0028851  0.6638138  0.3326235  )
         9           Cs  tau(   9) = (  0.9990483  0.6714908  0.6695483  )
        10           Cs  tau(  10) = (  0.3323275  0.0041545  0.9998330  )
        11           Cs  tau(  11) = (  0.3288317  0.9999580  0.3350716  )
        12           Cs  tau(  12) = (  0.3323740  0.0033426  0.6716037  )
        13           Cs  tau(  13) = (  0.3380847  0.3397912  0.0032772  )
        14           Cs  tau(  14) = (  0.3292352  0.3266957  0.3292828  )
        15           Cs  tau(  15) = (  0.3385147  0.3341894  0.6666351  )
        16           Cs  tau(  16) = (  0.3296744  0.6627266  0.0015736  )
        17           Cs  tau(  17) = (  0.3286860  0.6605165  0.3289212  )
        18           Cs  tau(  18) = (  0.3363376  0.6699914  0.6723095  )
        19           Cs  tau(  19) = (  0.6670272  0.0036712  0.0056115  )
        20           Cs  tau(  20) = (  0.6686950  0.0036609  0.3392174  )
        21           Cs  tau(  21) = (  0.6718336  0.0061171  0.6698564  )
        22           Cs  tau(  22) = (  0.6709200  0.3343373  0.9975701  )
        23           Cs  tau(  23) = (  0.6689428  0.3329192  0.3290129  )
        24           Cs  tau(  24) = (  0.6638890  0.3360656  0.6695388  )
        25           Cs  tau(  25) = (  0.6713448  0.6684135  0.0035512  )
        26           Cs  tau(  26) = (  0.6715648  0.6699330  0.3322874  )
        27           Cs  tau(  27) = (  0.6714010  0.6682890  0.6649352  )
        28           I   tau(  28) = (  0.1705246  0.0067720  0.1699129  )
        29           I   tau(  29) = (  0.1627048  0.0001603  0.5026919  )
        30           I   tau(  30) = (  0.1656435  0.0047733  0.8361108  )
        31           I   tau(  31) = (  0.1721104  0.3389451  0.1701566  )
        32           I   tau(  32) = (  0.1656753  0.3283888  0.4945689  )
        33           I   tau(  33) = (  0.1676038  0.3344373  0.8386197  )
        34           I   tau(  34) = (  0.1665037  0.6663482  0.1616990  )
        35           I   tau(  35) = (  0.1673013  0.6642478  0.4946862  )
        36           I   tau(  36) = (  0.1718801  0.6691975  0.8366922  )
        37           I   tau(  37) = (  0.5031961  0.9984456  0.1683748  )
        38           I   tau(  38) = (  0.5008411  0.0059923  0.5022382  )
        39           I   tau(  39) = (  0.5038963  0.0012613  0.8373863  )
        40           I   tau(  40) = (  0.4964441  0.3330085  0.1630979  )
        41           I   tau(  41) = (  0.5036216  0.3341641  0.5039576  )
        42           I   tau(  42) = (  0.4944548  0.3284246  0.8321322  )
        43           I   tau(  43) = (  0.4979489  0.6705058  0.1683959  )
[...]
sddk::FFT3D::transform_z_serial                                   : 1192923   160.1940     0.0001     0.1245     0.0001     100.00
sddk::Gvec::find_gvec_shells                                      :     30     0.4098     0.0088     0.1152     0.0137     100.00
sddk::Gvec::init                                                  :     30     0.6808     0.0147     0.1895     0.0227      39.81
sddk::matrix_storage::matrix_storage                              :   5012    28.1708     0.0000     0.2254     0.0056     100.00
sddk::matrix_storage::remap_forward                               :   7631     0.0135     0.0000     0.0000     0.0000     100.00
sddk::wave_functions::inner                                       :  19617   309.7636     0.0014     0.1742     0.0158     100.00
sddk::wave_functions::orthogonalize                               :   6819   296.7200     0.0071     0.3086     0.0435      25.16
sddk::wave_functions::transform                                   :  12933    19.4435     0.0001     0.0721     0.0015      98.95
sddk::wave_functions::transform|init                              :  12933     0.2034     0.0000     0.0000     0.0000     100.00
sirius::Augmentation_operator::generate_pw_coeffs                 :      2     0.8147     0.4061     0.4086     0.4073     100.00
sirius::Band::apply_h_o                                           :   6819  1361.2771     0.0246     1.7113     0.1996       0.01
sirius::Band::diag_pseudo_potential                               :    812  2812.6884     1.2819     8.8548     3.4639       0.02
sirius::Band::diag_pseudo_potential_davidson                      :    812  2806.0427     1.2739     8.8469     3.4557       1.11
sirius::Band::diag_pseudo_potential_davidson|alloc                :    812    55.6214     0.0671     0.0787     0.0685      89.16
sirius::Band::diag_pseudo_potential_davidson|evp                  :   6791   753.0877     0.0400     0.2258     0.1109     100.00
sirius::Band::diag_pseudo_potential_davidson|iter                 :    812  2580.0332     1.0116     8.4877     3.1774       0.01
sirius::Band::diag_pseudo_potential_davidson|update_phi           :    840     4.8171     0.0032     0.0766     0.0057       0.60
sirius::Band::diag_pseudo_potential_davidson|wf                   :    812     0.1349     0.0000     0.0626     0.0002      98.65
sirius::Band::get_h_diag                                          :    812    56.6139     0.0686     0.0803     0.0697     100.00
sirius::Band::get_o_diag                                          :    812    54.1254     0.0657     0.0715     0.0667     100.00
sirius::Band::initialize_subspace                                 :      1    86.8786    86.8786    86.8786    86.8786       0.00
sirius::Band::initialize_subspace|kp                              :     28    86.8275     2.9460     3.5750     3.1010      13.09
sirius::Band::initialize_subspace|kp|wf                           :     28     6.2858     0.2224     0.2312     0.2245     100.00
sirius::Band::residuals                                           :   6732   111.5558     0.0000     0.1141     0.0166       1.65
sirius::Band::residuals_aux                                       :   6058   101.4213     0.0044     0.1060     0.0167     100.00
sirius::Band::set_subspace_mtrx                                   :   6819    96.2565     0.0015     0.1366     0.0141       2.36
sirius::Band::solve_for_kset                                      :     29  2892.0715    38.4691   223.2712    99.7266       0.00
sirius::Beta_projectors::Beta_projectors                          :     28     0.8309     0.0291     0.0304     0.0297       0.03
sirius::Beta_projectors::generate_pw_coefs_t                      :     28     0.8307     0.0291     0.0304     0.0297     100.00
sirius::Beta_projectors_base::dismiss                             :   1652    28.5475     0.0001     0.0556     0.0173     100.00
sirius::Beta_projectors_base::generate                            :   7631    64.6910     0.0073     0.5108     0.0085     100.00
sirius::Beta_projectors_base::inner                               :   7631   259.8235     0.0040     0.1893     0.0340     100.00
sirius::Beta_projectors_base::prepare                             :   1652    11.9240     0.0069     0.0100     0.0072     100.00
sirius::DFT_ground_state::ewald_energy                            :      1     0.0519     0.0519     0.0519     0.0519     100.00
sirius::DFT_ground_state::symmetrize                              :     29     1.2540     0.0358     0.0460     0.0432       0.94
sirius::Density::add_k_point_contribution_dm                      :    812    77.4726     0.0696     0.1037     0.0954       2.64
sirius::Density::add_k_point_contribution_rg                      :    812   285.3105     0.3476     0.3652     0.3514       1.78
sirius::Density::augment                                          :     29     2.3949     0.0825     0.0827     0.0826       1.32
sirius::Density::generate_pseudo_core_charge_density              :      1     0.0908     0.0908     0.0908     0.0908       0.31
sirius::Density::generate_rho_aug                                 :     29     2.3633     0.0814     0.0816     0.0815     100.00
sirius::Density::generate_valence                                 :     29   398.3124    13.6800    13.8119    13.7349       8.18
sirius::Density::initial_density                                  :      1     0.1325     0.1325     0.1325     0.1325      19.26
sirius::Density::symmetrize_density_matrix                        :     29     0.0333     0.0011     0.0012     0.0011     100.00
sirius::K_point::generate_gkvec                                   :     28     0.4257     0.0147     0.0154     0.0152       0.14
sirius::K_point::initialize                                       :     28     5.2824     0.1874     0.1919     0.1887      12.42
sirius::K_point_set::sync_band_energies                           :     29    78.1033     0.0003    11.0356     2.6932     100.00
sirius::Local_operator::apply_h                                   :   6819   817.8153     0.0016     0.7789     0.1199       6.25
sirius::Local_operator::prepare                                   :    870     4.6941     0.0038     0.0503     0.0054      89.56
sirius::Non_local_operator::Non_local_operator                    :   1680     0.0477     0.0000     0.0000     0.0000     100.00
sirius::Non_local_operator::apply                                 :  13638   288.3441     0.0057     0.1208     0.0211     100.00
sirius::Periodic_function::inner                                  :     87     0.1768     0.0019     0.0021     0.0020      65.77
sirius::Potential::Potential                                      :      1     0.3179     0.3179     0.3179     0.3179      16.78
sirius::Potential::generate_D_operator_matrix                     :     30     2.5579     0.0827     0.0894     0.0853     100.00
sirius::Potential::generate_local_potential                       :      1     0.2645     0.2645     0.2645     0.2645       0.11
sirius::Radial_integrals|aug                                      :      1     0.0541     0.0541     0.0541     0.0541     100.00
sirius::Radial_integrals|beta                                     :      2     0.2317     0.1128     0.1190     0.1159     100.00
sirius::Radial_integrals|rho_core_pseudo                          :      1     0.0156     0.0156     0.0156     0.0156     100.00
sirius::Radial_integrals|rho_pseudo                               :      1     0.0155     0.0155     0.0155     0.0155     100.00
sirius::Radial_integrals|vloc                                     :      1     0.1812     0.1812     0.1812     0.1812     100.00
sirius::Simulation_context::initialize                            :      1     1.8422     1.8422     1.8422     1.8422       0.05
sirius::Simulation_context_base::initialize                       :      1     1.0266     1.0266     1.0266     1.0266       9.90
sirius::Simulation_context_base::make_periodic_function           :      3     0.0986     0.0250     0.0477     0.0329     100.00
sirius::Smooth_periodic_function::fft_transform                   :    151     5.6558     0.0102     0.1028     0.0375      81.39
sirius::Smooth_periodic_function::gather_f_pw                     :    120     0.9870     0.0029     0.0320     0.0082     100.00
sirius::Symmetry::symmetrize_function_pw                          :     29     0.9566     0.0263     0.0360     0.0330      12.06
sirius::Symmetry::symmetrize_function_pw|local                    :     29     0.3240     0.0111     0.0112     0.0112     100.00
+global_timer ( 3558.7535s, 0.00 % of self, 100.00 % of total)
|--qe|run_pwscf ( 3558.5806s, 100.00 %)
qe|electrons ( 3538.9753s, 0.00 % of self, 99.44 % of total)
|--qe|electrons|scf ( 3446.1260s, 97.38 %)
|--qe|electrons|init (   92.8474s, 2.62 %)
qe|electrons|init (   92.8474s, 5.54 % of self, 2.61 % of total)
|--sirius::Band::initialize_subspace (   86.8786s, 93.57 %)
|--sirius::Potential::Potential (    0.3179s, 0.34 %)
|--sirius::Density::initial_density (    0.1325s, 0.14 %)
|--sirius::Smooth_periodic_function::fft_transform (    0.0917s, 0.10 %)
|--sirius::Density::generate_pseudo_core_charge_density (    0.0908s, 0.10 %)
|--sirius::Potential::generate_D_operator_matrix (    0.0837s, 0.09 %)
|--sirius::Smooth_periodic_function::gather_f_pw (    0.0553s, 0.06 %)
|--sirius::DFT_ground_state::ewald_energy (    0.0519s, 0.06 %)
|--sirius::Band::Band (    0.0000s, 0.00 %)
qe|electrons|scf ( 3446.1260s, 0.01 % of self, 96.84 % of total)
|--sirius::Band::solve_for_kset ( 2892.0715s, 83.92 %)
|--sirius::Density::generate_valence (  398.3124s, 11.56 %)
|--qe|veff (  132.5805s, 3.85 %)
|--qe|mix (   20.5488s, 0.60 %)
|--sirius::DFT_ground_state::symmetrize (    1.2540s, 0.04 %)
|--sirius::Smooth_periodic_function::fft_transform (    0.9711s, 0.03 %)
|--sirius::Periodic_function::inner (    0.1163s, 0.00 %)
qe|run_pwscf ( 3558.5806s, 0.04 % of self, 100.00 % of total)
|--qe|run_pwscf|electrons ( 3538.9753s, 99.45 %)
|--qe|run_pwscf|punch (    8.7321s, 0.25 %)
|--qe|run_pwscf|setup_sirius (    7.1392s, 0.20 %)
|--qe|run_pwscf|init_run (    2.3802s, 0.07 %)
|--qe|run_pwscf|setup (    0.0111s, 0.00 %)
|--qe|run_pwscf|ions (    0.0000s, 0.00 %)
|--qe|run_pwscf|forces (    0.0000s, 0.00 %)
|--qe|run_pwscf|stress (    0.0000s, 0.00 %)
qe|run_pwscf|electrons ( 3538.9753s, 0.00 % of self, 99.44 % of total)
|--qe|electrons ( 3538.9753s, 100.00 %)
qe|veff (  132.5805s, 95.89 % of self, 3.73 % of total)
|--sirius::Smooth_periodic_function::fft_transform (    2.9746s, 2.24 %)
|--sirius::Potential::generate_D_operator_matrix (    2.4742s, 1.87 %)
sddk::FFT3D::transform ( 1045.5082s, 0.23 % of self, 29.38 % of total)
|--sddk::FFT3D::transform_xy (  785.7972s, 75.16 %)
|--sddk::FFT3D::transform_z (  257.2654s, 24.61 %)
sddk::FFT3D::transform_z (  257.2654s, 37.73 % of self, 7.23 % of total)
|--sddk::FFT3D::transform_z_serial (  160.1940s, 62.27 %)
sddk::wave_functions::orthogonalize (  296.7200s, 25.16 % of self, 8.34 % of total)
|--sddk::wave_functions::inner (  215.7826s, 72.72 %)
|--sddk::wave_functions::transform (    6.2709s, 2.11 %)
sirius::Band::apply_h_o ( 1361.2771s, 0.01 % of self, 38.25 % of total)
|--sirius::Local_operator::apply_h (  817.8153s, 60.08 %)
|--sirius::Non_local_operator::apply (  288.3441s, 21.18 %)
|--sirius::Beta_projectors_base::inner (  196.6697s, 14.45 %)
|--sirius::Beta_projectors_base::generate (   58.2873s, 4.28 %)
sirius::Band::diag_pseudo_potential ( 2812.6884s, 0.02 % of self, 79.04 % of total)
|--sirius::Band::diag_pseudo_potential_davidson ( 2806.0427s, 99.76 %)
|--sirius::Local_operator::prepare (    3.3066s, 0.12 %)
|--sddk::FFT3D::prepare (    2.6415s, 0.09 %)
|--sirius::Non_local_operator::Non_local_operator (    0.0457s, 0.00 %)
sirius::Band::diag_pseudo_potential_davidson ( 2806.0427s, 1.11 % of self, 78.85 % of total)
|--sirius::Band::diag_pseudo_potential_davidson|iter ( 2580.0332s, 91.95 %)
|--sirius::Band::get_h_diag (   56.6139s, 2.02 %)
|--sirius::Band::diag_pseudo_potential_davidson|alloc (   55.6214s, 1.98 %)
|--sirius::Band::get_o_diag (   54.1254s, 1.93 %)
|--sirius::Beta_projectors_base::dismiss (   28.3684s, 1.01 %)
|--sirius::Band::diag_pseudo_potential_davidson|wf (    0.1349s, 0.00 %)
sirius::Band::diag_pseudo_potential_davidson|alloc (   55.6214s, 89.16 % of self, 1.56 % of total)
|--sirius::Beta_projectors_base::prepare (    6.0273s, 10.84 %)
sirius::Band::diag_pseudo_potential_davidson|iter ( 2580.0332s, 0.01 % of self, 72.50 % of total)
|--sirius::Band::apply_h_o ( 1326.2129s, 51.40 %)
|--sirius::Band::diag_pseudo_potential_davidson|evp (  753.0877s, 29.19 %)
|--sddk::wave_functions::orthogonalize (  290.6883s, 11.27 %)
|--sirius::Band::residuals (  111.5558s, 4.32 %)
|--sirius::Band::set_subspace_mtrx (   93.4674s, 3.62 %)
|--sirius::Band::diag_pseudo_potential_davidson|update_phi (    4.8171s, 0.19 %)
sirius::Band::initialize_subspace (   86.8786s, 0.00 % of self, 2.44 % of total)
|--sirius::Band::initialize_subspace|kp (   86.8275s, 99.94 %)
|--sirius::Local_operator::prepare (    0.0503s, 0.06 %)
sirius::Band::initialize_subspace|kp (   86.8275s, 13.09 % of self, 2.44 % of total)
|--sirius::Band::apply_h_o (   35.0642s, 40.38 %)
|--sddk::matrix_storage::matrix_storage (   24.7994s, 28.56 %)
|--sirius::Band::initialize_subspace|kp|wf (    6.2858s, 7.24 %)
|--sddk::wave_functions::orthogonalize (    6.0318s, 6.95 %)
|--sirius::Band::set_subspace_mtrx (    2.7891s, 3.21 %)
|--sirius::Beta_projectors_base::prepare (    0.2040s, 0.23 %)
|--sirius::Local_operator::prepare (    0.1115s, 0.13 %)
|--sddk::wave_functions::transform (    0.0908s, 0.10 %)
|--sddk::FFT3D::prepare (    0.0849s, 0.10 %)
|--sirius::Beta_projectors_base::dismiss (    0.0025s, 0.00 %)
|--sirius::Non_local_operator::Non_local_operator (    0.0020s, 0.00 %)
sirius::Band::residuals (  111.5558s, 1.65 % of self, 3.13 % of total)
|--sirius::Band::residuals_aux (  101.4213s, 90.92 %)
|--sddk::wave_functions::transform (    8.2934s, 7.43 %)
sirius::Band::set_subspace_mtrx (   96.2565s, 2.36 % of self, 2.70 % of total)
|--sddk::wave_functions::inner (   93.9810s, 97.64 %)
sirius::Band::solve_for_kset ( 2892.0715s, 0.00 % of self, 81.27 % of total)
|--sirius::Band::diag_pseudo_potential ( 2812.6884s, 97.26 %)
|--sirius::K_point_set::sync_band_energies (   78.1033s, 2.70 %)
|--sirius::Local_operator::prepare (    1.2258s, 0.04 %)
sirius::Density::add_k_point_contribution_dm (   77.4726s, 2.64 % of self, 2.18 % of total)
|--sirius::Beta_projectors_base::inner (   63.1538s, 81.52 %)
|--sirius::Beta_projectors_base::generate (    6.4037s, 8.27 %)
|--sirius::Beta_projectors_base::prepare (    5.6927s, 7.35 %)
|--sirius::Beta_projectors_base::dismiss (    0.1766s, 0.23 %)
sirius::Density::add_k_point_contribution_rg (  285.3105s, 1.78 % of self, 8.02 % of total)
|--sddk::FFT3D::transform (  277.6693s, 97.32 %)
|--sddk::FFT3D::prepare (    2.5656s, 0.90 %)
sirius::Density::generate_valence (  398.3124s, 8.18 % of self, 11.19 % of total)
|--sirius::Density::add_k_point_contribution_rg (  285.3105s, 71.63 %)
|--sirius::Density::add_k_point_contribution_dm (   77.4726s, 19.45 %)
|--sirius::Density::augment (    2.3949s, 0.60 %)
|--sirius::Smooth_periodic_function::fft_transform (    0.2972s, 0.07 %)
|--sddk::FFT3D::prepare (    0.1040s, 0.03 %)
|--sirius::Smooth_periodic_function::gather_f_pw (    0.0983s, 0.02 %)
|--sirius::Density::symmetrize_density_matrix (    0.0333s, 0.01 %)
|--sddk::matrix_storage::remap_forward (    0.0045s, 0.00 %)
sirius::Local_operator::apply_h (  817.8153s, 6.25 % of self, 22.98 % of total)
|--sddk::FFT3D::transform (  766.6958s, 93.75 %)
|--sddk::matrix_storage::remap_forward (    0.0090s, 0.00 %)
|--sddk::matrix_storage::remap_backward (    0.0019s, 0.00 %)

     General routines

     Parallel routines

   This run was terminated on:  10:32:13   9Aug2017

   JOB DONE.
Note: The following floating-point exceptions are signalling: IEEE_UNDERFLOW_FLAG IEEE_DENORMAL
Note: The following floating-point exceptions are signalling: IEEE_UNDERFLOW_FLAG IEEE_DENORMAL
Note: The following floating-point exceptions are signalling: IEEE_UNDERFLOW_FLAG IEEE_DENORMAL
Note: The following floating-point exceptions are signalling: IEEE_UNDERFLOW_FLAG IEEE_DENORMAL
Note: The following floating-point exceptions are signalling: IEEE_UNDERFLOW_FLAG IEEE_DENORMAL
Note: The following floating-point exceptions are signalling: IEEE_UNDERFLOW_FLAG IEEE_DENORMAL
Note: The following floating-point exceptions are signalling: IEEE_UNDERFLOW_FLAG IEEE_DENORMAL
Note: The following floating-point exceptions are signalling: IEEE_UNDERFLOW_FLAG IEEE_DENORMAL