     Program PWSCF v.6.1 starts on  9Aug2017 at 10:39:10

     Current dimensions of program PWSCF are:
     Max number of different atomic species (ntypx) = 10
     Max number of k-points (npk) =  40000
     Max angular momentum in pseudopotentials (lmaxx) =  3

     Subspace diagonalization in iterative solution of the eigenvalue problem:
     a serial algorithm will be used

   Info: using nr1, nr2, nr3 values from input

     bravais-lattice index     =            0
     lattice parameter (alat)  =      31.4056  a.u.
     unit-cell volume          =   21903.1443 (a.u.)^3
     number of atoms/cell      =           54
     number of atomic types    =            2
     number of electrons       =       432.00
     number of Kohn-Sham states=          259
     kinetic-energy cutoff     =      45.0000  Ry
     charge density cutoff     =     360.0000  Ry
     convergence threshold     =      5.4E-07
     mixing beta               =       0.3500
     number of iterations used =            8  plain     mixing
     Exchange-correlation      = SLA  PW   PBE  PBE ( 1  4  3  4 0 0)

     celldm(1)=  31.405604  celldm(2)=   0.000000  celldm(3)=   0.000000
     celldm(4)=   0.000000  celldm(5)=   0.000000  celldm(6)=   0.000000

     crystal axes: (cart. coord. in units of alat)
               a(1) = (   1.000000   0.000000   0.000000 )
               a(2) = (  -0.500000   0.707107  -0.500000 )
               a(3) = (   0.000000   0.000000   1.000000 )

     reciprocal axes: (cart. coord. in units 2 pi/alat)
               b(1) = (  1.000000  0.707107 -0.000000 )
               b(2) = (  0.000000  1.414214  0.000000 )
               b(3) = ( -0.000000  0.707107  1.000000 )

     PseudoPot. # 1 for Cs read from file:
     ./pseudo/Cs_pbe_v1.uspp.F.UPF
     MD5 check sum: 3476d69cb178dfad3ffaa59df4e07ca4
     Pseudo is Ultrasoft + core correction, Zval =  9.0
     Generated by new atomic code, or converted to UPF format
     Using radial grid of  905 points,  6 beta functions with:
                l(1) =   0
                l(2) =   0
                l(3) =   1
                l(4) =   1
                l(5) =   2
                l(6) =   2
     Q(r) pseudized with  6 coefficients,  rinner =    1.500   1.500   1.500
                                                       1.500   1.500

     PseudoPot. # 2 for I  read from file:
     ./pseudo/I_pbe_v1.uspp.F.UPF
     MD5 check sum: 51366c2fb896752a147e77acbb9f6bcb
     Pseudo is Ultrasoft + core correction, Zval =  7.0
     Generated by new atomic code, or converted to UPF format
     Using radial grid of  893 points,  6 beta functions with:
                l(1) =   0
                l(2) =   0
                l(3) =   1
                l(4) =   1
                l(5) =   2
                l(6) =   2
     Q(r) pseudized with  8 coefficients,  rinner =    1.500   1.500   1.500
                                                       1.500   1.500

     atomic species   valence    mass     pseudopotential
        Cs             9.00   132.90545     Cs( 1.00)
        I              7.00   126.90447     I ( 1.00)

     No symmetry found

                                    s                        frac. trans.

      isym =  1     identity

 cryst.   s( 1) = (     1          0          0      )
                  (     0          1          0      )
                  (     0          0          1      )

 cart.    s( 1) = (  1.0000000  0.0000000  0.0000000 )
                  (  0.0000000  1.0000000  0.0000000 )
                  (  0.0000000  0.0000000  1.0000000 )

   Cartesian axes

     site n.     atom                  positions (a.u.)
         1           Cs  tau(   1) = (  15.7567088  22.0681150  15.6777486  )
         2           Cs  tau(   2) = (  15.5797094  22.1674162  -5.3125422  )
         3           Cs  tau(   3) = (  15.6206425  22.0820821   5.2125602  )
         4           Cs  tau(   4) = (  26.1253071   7.2862844  -5.1490631  )
         5           Cs  tau(   5) = (  26.1782224   7.2681475   5.1650487  )
         6           Cs  tau(   6) = (  -5.2654524   7.5321059  15.7738754  )
         7           Cs  tau(   7) = ( -10.4855889  14.9308094 -10.3868559  )
         8           Cs  tau(   8) = ( -10.3331288  14.7413908   0.0225040  )
         9           Cs  tau(   9) = (  20.8314272  14.9118750  10.4832802  )
        10           Cs  tau(  10) = (  10.3717088   0.0922588  31.3351213  )
        11           Cs  tau(  11) = (  -5.3749842  22.2061828  -5.1790158  )
        12           Cs  tau(  12) = (  10.3859172   0.0742297  21.0396323  )
        13           Cs  tau(  13) = (   5.2820790   7.5457824  -5.2327505  )
        14           Cs  tau(  14) = (   5.2097947   7.2549683   5.2112877  )
        15           Cs  tau(  15) = (   5.3835492   7.4213821  15.6883673  )
        16           Cs  tau(  16) = (  -0.0530397  14.7172458 -10.3572437  )
        17           Cs  tau(  17) = (  -0.0493768  14.6681664  -0.0419924  )
        18           Cs  tau(  18) = (   0.0421442  14.8785765  10.5935445  )
        19           Cs  tau(  19) = (  20.8907429   0.0815275   0.1185830  )
        20           Cs  tau(  20) = (  20.9432845   0.0812971  10.5958413  )
        21           Cs  tau(  21) = (  21.0032837   0.1358437  20.9411899  )
        22           Cs  tau(  22) = (  15.8206137   7.4246678  26.0792601  )
        23           Cs  tau(  23) = (  15.7807894   7.3931748   5.1050845  )
        24           Cs  tau(  24) = (  15.5726632   7.4630480  15.7501000  )
        25           Cs  tau(  25) = (  10.5880232  14.8435362 -10.3844368  )
        26           Cs  tau(  26) = (  10.5710729  14.8772789  -0.0841392  )
        27           Cs  tau(  27) = (  10.5917441  14.8407709  10.3886828  )
        28           I   tau(  28) = (   5.2490891   0.1503857   5.2298787  )
        29           I   tau(  29) = (   5.1073247   0.0035600  15.7848246  )
        30           I   tau(  30) = (   5.1271788   0.1060008  26.1836125  )
        31           I   tau(  31) = (   0.0828421   7.5269935   0.0214818  )
        32           I   tau(  32) = (   0.0465070   7.2925686  10.3756093  )
        33           I   tau(  33) = (   0.0120975   7.4268868  21.0857554  )
        34           I   tau(  34) = (  -5.2343842  14.7976706  -5.3852799  )
        35           I   tau(  35) = (  -5.1763544  14.7510278   5.1053663  )
        36           I   tau(  36) = (  -5.1102776  14.8609467  15.7685486  )
        37           I   tau(  37) = (   0.1247830  22.1725965 -10.3904807  )
        38           I   tau(  38) = (  15.6351237   0.1330706  15.6789976  )
        39           I   tau(  39) = (  15.8053616   0.0280091  26.2788165  )
        40           I   tau(  40) = (  10.3619593   7.3951589  -0.1069788  )
        41           I   tau(  41) = (  10.5692270   7.4208203  10.5797802  )
        42           I   tau(  42) = (  10.3714655   7.2933621  20.9764299  )
        43           I   tau(  43) = (   5.1095655  14.8899995  -5.2402451  )
        44           I   tau(  44) = (   5.1208868  14.8587383   5.1500994  )
        45           I   tau(  45) = (   5.1460214  14.8064135  15.8255404  )
        46           I   tau(  46) = (  10.5842630  22.1201890 -10.5121872  )
        47           I   tau(  47) = (  10.3322788  22.1437979   0.0167324  )
        48           I   tau(  48) = (  26.2273575   0.0969202  26.0697348  )
        49           I   tau(  49) = (  20.8014627   7.3355475  -0.0003023  )
        50           I   tau(  50) = (  20.8961625   7.3353978  10.5977473  )
        51           I   tau(  51) = (  20.8597873   7.5288633  20.9073676  )
        52           I   tau(  52) = (  15.7971746  14.9181078  -5.2011424  )
        53           I   tau(  53) = (  15.8408514  14.8659140   5.2268221  )
        54           I   tau(  54) = (  15.6550028  14.9414326  15.6593713  )

   Crystallographic axes

     site n.     atom                  positions (cryst. coord.)
         1           Cs  tau(   1) = (  0.9985868  0.9937407  0.9960726  )
         2           Cs  tau(   2) = (  0.9951867  0.9982123  0.3299471  )
         3           Cs  tau(   3) = (  0.9945687  0.9943697  0.6631603  )
         4           Cs  tau(   4) = (  0.9959206  0.3281058  0.0000993  )
         5           Cs  tau(   5) = (  0.9971971  0.3272891  0.3281072  )
         6           Cs  tau(   6) = (  0.0019280  0.3391753  0.6718507  )
         7           Cs  tau(   7) = (  0.0022954  0.6723435  0.0054392  )
         8           Cs  tau(   8) = (  0.0028851  0.6638138  0.3326235  )
         9           Cs  tau(   9) = (  0.9990483  0.6714908  0.6695483  )
        10           Cs  tau(  10) = (  0.3323275  0.0041545  0.9998330  )
        11           Cs  tau(  11) = (  0.3288317  0.9999580  0.3350716  )
        12           Cs  tau(  12) = (  0.3323740  0.0033426  0.6716037  )
        13           Cs  tau(  13) = (  0.3380847  0.3397912  0.0032772  )
        14           Cs  tau(  14) = (  0.3292352  0.3266957  0.3292828  )
        15           Cs  tau(  15) = (  0.3385147  0.3341894  0.6666351  )
        16           Cs  tau(  16) = (  0.3296744  0.6627266  0.0015736  )
        17           Cs  tau(  17) = (  0.3286860  0.6605165  0.3289212  )
        18           Cs  tau(  18) = (  0.3363376  0.6699914  0.6723095  )
        19           Cs  tau(  19) = (  0.6670272  0.0036712  0.0056115  )
        20           Cs  tau(  20) = (  0.6686950  0.0036609  0.3392174  )
        21           Cs  tau(  21) = (  0.6718336  0.0061171  0.6698564  )
        22           Cs  tau(  22) = (  0.6709200  0.3343373  0.9975701  )
        23           Cs  tau(  23) = (  0.6689428  0.3329192  0.3290129  )
        24           Cs  tau(  24) = (  0.6638890  0.3360656  0.6695388  )
        25           Cs  tau(  25) = (  0.6713448  0.6684135  0.0035512  )
        26           Cs  tau(  26) = (  0.6715648  0.6699330  0.3322874  )
        27           Cs  tau(  27) = (  0.6714010  0.6682890  0.6649352  )
        28           I   tau(  28) = (  0.1705246  0.0067720  0.1699129  )
        29           I   tau(  29) = (  0.1627048  0.0001603  0.5026919  )
        30           I   tau(  30) = (  0.1656435  0.0047733  0.8361108  )
        31           I   tau(  31) = (  0.1721104  0.3389451  0.1701566  )
        32           I   tau(  32) = (  0.1656753  0.3283888  0.4945689  )
        33           I   tau(  33) = (  0.1676038  0.3344373  0.8386197  )
        34           I   tau(  34) = (  0.1665037  0.6663482  0.1616990  )
        35           I   tau(  35) = (  0.1673013  0.6642478  0.4946862  )
        36           I   tau(  36) = (  0.1718801  0.6691975  0.8366922  )
        37           I   tau(  37) = (  0.5031961  0.9984456  0.1683748  )
        38           I   tau(  38) = (  0.5008411  0.0059923  0.5022382  )
        39           I   tau(  39) = (  0.5038963  0.0012613  0.8373863  )
        40           I   tau(  40) = (  0.4964441  0.3330085  0.1630979  )
        41           I   tau(  41) = (  0.5036216  0.3341641  0.5039576  )
        42           I   tau(  42) = (  0.4944548  0.3284246  0.8321322  )
        43           I   tau(  43) = (  0.4979489  0.6705058  0.1683959  )
[...]
sddk::FFT3D::transform                                            : 2343737  2049.0286     0.0006     0.1245     0.0009       0.24
sddk::FFT3D::transform_xy                                         : 2343737  1546.6063     0.0005     0.0037     0.0007     100.00
sddk::FFT3D::transform_z                                          : 2343737   497.4085     0.0001     0.1237     0.0002      38.27
sddk::FFT3D::transform_z_serial                                   : 2343737   307.0507     0.0001     0.1237     0.0001     100.00
sddk::Gvec::find_gvec_shells                                      :     57     0.6542     0.0090     0.1144     0.0115     100.00
sddk::Gvec::init                                                  :     57     1.0887     0.0150     0.1886     0.0191      39.91
sddk::matrix_storage::matrix_storage                              :   9845    55.4704     0.0000     0.2266     0.0056     100.00
sddk::matrix_storage::remap_forward                               :  15038     0.0268     0.0000     0.0000     0.0000     100.00
sddk::wave_functions::inner                                       :  38679   607.4815     0.0014     0.1737     0.0157     100.00
sddk::wave_functions::orthogonalize                               :  13443   581.6305     0.0070     0.3080     0.0433      25.15
sddk::wave_functions::transform                                   :  25503    38.2504     0.0001     0.0719     0.0015      98.96
sddk::wave_functions::transform|init                              :  25503     0.3984     0.0000     0.0000     0.0000     100.00
sirius::Augmentation_operator::generate_pw_coeffs                 :      2     1.4686     0.7314     0.7373     0.7343     100.00
sirius::Band::apply_h_o                                           :  13443  2672.2598     0.0246     1.7130     0.1988       0.01
sirius::Band::diag_pseudo_potential                               :   1595  5520.9756     1.2814     8.8564     3.4614       0.02
sirius::Band::diag_pseudo_potential_davidson                      :   1595  5507.9032     1.2735     8.8486     3.4532       1.11
sirius::Band::diag_pseudo_potential_davidson|alloc                :   1595   109.3247     0.0671     0.0779     0.0685      89.17
sirius::Band::diag_pseudo_potential_davidson|evp                  :  13388  1477.3786     0.0399     0.2271     0.1104     100.00
sirius::Band::diag_pseudo_potential_davidson|iter                 :   1595  5064.3251     1.0115     8.4899     3.1751       0.01
sirius::Band::diag_pseudo_potential_davidson|update_phi           :   1650     9.4606     0.0032     0.0765     0.0057       0.60
sirius::Band::diag_pseudo_potential_davidson|wf                   :   1595     0.2066     0.0000     0.0624     0.0001      98.28
sirius::Band::get_h_diag                                          :   1595   111.1058     0.0686     0.0763     0.0697     100.00
sirius::Band::get_o_diag                                          :   1595   106.3898     0.0658     0.0719     0.0667     100.00
sirius::Band::initialize_subspace                                 :      1   169.3026   169.3026   169.3026   169.3026       0.00
sirius::Band::initialize_subspace|kp                              :     55   169.2521     2.9360     3.5786     3.0773      13.17
sirius::Band::initialize_subspace|kp|wf                           :     55    12.3188     0.2217     0.2420     0.2240     100.00
sirius::Band::residuals                                           :  13272   219.0690     0.0000     0.1140     0.0165       1.70
sirius::Band::residuals_aux                                       :  11950   198.9820     0.0044     0.1055     0.0167     100.00
sirius::Band::set_subspace_mtrx                                   :  13443   188.9162     0.0015     0.1557     0.0141       2.39
sirius::Band::solve_for_kset                                      :     29  5657.8622    73.8313   436.6460   195.0987       0.00
sirius::Beta_projectors::Beta_projectors                          :     55     1.6070     0.0288     0.0300     0.0292       0.03
sirius::Beta_projectors::generate_pw_coefs_t                      :     55     1.6065     0.0288     0.0300     0.0292     100.00
sirius::Beta_projectors_base::dismiss                             :   3245    56.0561     0.0001     0.0580     0.0173     100.00
sirius::Beta_projectors_base::generate                            :  15038   125.6076     0.0073     0.5119     0.0084     100.00
sirius::Beta_projectors_base::inner                               :  15038   503.0223     0.0040     0.1905     0.0335     100.00
sirius::Beta_projectors_base::prepare                             :   3245    23.4809     0.0069     0.0112     0.0072     100.00
sirius::DFT_ground_state::ewald_energy                            :      1     0.0797     0.0797     0.0797     0.0797     100.00
sirius::DFT_ground_state::symmetrize                              :     29     1.3175     0.0424     0.0475     0.0454       1.69
sirius::Density::add_k_point_contribution_dm                      :   1595   147.2736     0.0692     0.1022     0.0923       2.72
sirius::Density::add_k_point_contribution_rg                      :   1595   552.8171     0.3440     0.3566     0.3466       1.81
sirius::Density::augment                                          :     29     4.6513     0.1600     0.1687     0.1604       0.75
sirius::Density::generate_pseudo_core_charge_density              :      1     0.1163     0.1163     0.1163     0.1163       0.41
sirius::Density::generate_rho_aug                                 :     29     4.6164     0.1588     0.1675     0.1592     100.00
sirius::Density::generate_valence                                 :     29   792.0184    27.1789    27.4955    27.3110      10.95
sirius::Density::initial_density                                  :      1     0.1585     0.1585     0.1585     0.1585      16.33
sirius::Density::symmetrize_density_matrix                        :     29     0.0333     0.0011     0.0012     0.0011     100.00
sirius::K_point::generate_gkvec                                   :     55     0.8353     0.0151     0.0154     0.0152       0.14
sirius::K_point::initialize                                       :     55    10.3292     0.1869     0.1898     0.1878      12.55
sirius::K_point_set::sync_band_energies                           :     29   135.2152     0.0003    22.5300     4.6626     100.00
sirius::Local_operator::apply_h                                   :  13443  1609.7418     0.0016     0.7773     0.1197       6.19
sirius::Local_operator::prepare                                   :   1680     8.3994     0.0038     0.4564     0.0050      89.51
sirius::Non_local_operator::Non_local_operator                    :   3300     0.0980     0.0000     0.0001     0.0000     100.00
sirius::Non_local_operator::apply                                 :  26886   565.2345     0.0057     0.1218     0.0210     100.00
sirius::Periodic_function::inner                                  :     87     0.1755     0.0019     0.0021     0.0020      65.73
sirius::Potential::Potential                                      :      1     0.3668     0.3668     0.3668     0.3668      15.47
sirius::Potential::generate_D_operator_matrix                     :     30     4.8266     0.1576     0.1648     0.1609     100.00
sirius::Potential::generate_local_potential                       :      1     0.3101     0.3101     0.3101     0.3101       0.16
sirius::Radial_integrals|aug                                      :      1     0.0891     0.0891     0.0891     0.0891     100.00
sirius::Radial_integrals|beta                                     :      2     0.2317     0.1127     0.1189     0.1158     100.00
sirius::Radial_integrals|rho_core_pseudo                          :      1     0.0155     0.0155     0.0155     0.0155     100.00
sirius::Radial_integrals|rho_pseudo                               :      1     0.0155     0.0155     0.0155     0.0155     100.00
sirius::Radial_integrals|vloc                                     :      1     0.1812     0.1812     0.1812     0.1812     100.00
sirius::Simulation_context::initialize                            :      1     2.4489     2.4489     2.4489     2.4489       0.03
sirius::Simulation_context_base::initialize                       :      1     0.9795     0.9795     0.9795     0.9795       8.15
sirius::Simulation_context_base::make_periodic_function           :      3     0.1949     0.0500     0.0933     0.0650     100.00
sirius::Smooth_periodic_function::fft_transform                   :    151     4.8976     0.0102     0.0625     0.0324      78.51
sirius::Smooth_periodic_function::gather_f_pw                     :    120     1.2800     0.0024     0.4235     0.0107     100.00
sirius::Symmetry::symmetrize_function_pw                          :     29     1.0475     0.0333     0.0378     0.0361      11.95
sirius::Symmetry::symmetrize_function_pw|local                    :     29     0.6380     0.0219     0.0227     0.0220     100.00
+global_timer ( 6823.4222s, 0.00 % of self, 100.00 % of total)
|--qe|run_pwscf ( 6823.2481s, 100.00 %)
qe|electrons ( 6783.1624s, 0.00 % of self, 99.41 % of total)
|--qe|electrons|scf ( 6607.6865s, 97.41 %)
|--qe|electrons|init (  175.4739s, 2.59 %)
qe|electrons|init (  175.4739s, 2.94 % of self, 2.57 % of total)
|--sirius::Band::initialize_subspace (  169.3026s, 96.48 %)
|--sirius::Potential::Potential (    0.3668s, 0.21 %)
|--sirius::Potential::generate_D_operator_matrix (    0.1598s, 0.09 %)
|--sirius::Density::initial_density (    0.1585s, 0.09 %)
|--sirius::Density::generate_pseudo_core_charge_density (    0.1163s, 0.07 %)
|--sirius::Smooth_periodic_function::fft_transform (    0.0953s, 0.05 %)
|--sirius::DFT_ground_state::ewald_energy (    0.0797s, 0.05 %)
|--sirius::Smooth_periodic_function::gather_f_pw (    0.0393s, 0.02 %)
|--sirius::Band::Band (    0.0000s, 0.00 %)
qe|electrons|scf ( 6607.6865s, 0.00 % of self, 96.84 % of total)
|--sirius::Band::solve_for_kset ( 5657.8622s, 85.63 %)
|--sirius::Density::generate_valence (  792.0184s, 11.99 %)
|--qe|veff (  135.1018s, 2.04 %)
|--qe|mix (   19.9919s, 0.30 %)
|--sirius::DFT_ground_state::symmetrize (    1.3175s, 0.02 %)
|--sirius::Smooth_periodic_function::fft_transform (    0.9722s, 0.01 %)
|--sirius::Periodic_function::inner (    0.1154s, 0.00 %)
qe|run_pwscf ( 6823.2481s, 0.02 % of self, 100.00 % of total)
|--qe|run_pwscf|electrons ( 6783.1625s, 99.41 %)
|--qe|run_pwscf|punch (   22.9885s, 0.34 %)
|--qe|run_pwscf|setup_sirius (   12.7840s, 0.19 %)
|--qe|run_pwscf|init_run (    2.7279s, 0.04 %)
|--qe|run_pwscf|setup (    0.0099s, 0.00 %)
|--qe|run_pwscf|ions (    0.0000s, 0.00 %)
|--qe|run_pwscf|forces (    0.0000s, 0.00 %)
|--qe|run_pwscf|stress (    0.0000s, 0.00 %)
qe|run_pwscf|electrons ( 6783.1625s, 0.00 % of self, 99.41 % of total)
|--qe|electrons ( 6783.1624s, 100.00 %)
qe|veff (  135.1018s, 94.76 % of self, 1.98 % of total)
|--sirius::Potential::generate_D_operator_matrix (    4.6668s, 3.45 %)
|--sirius::Smooth_periodic_function::fft_transform (    2.4095s, 1.78 %)
sddk::FFT3D::transform ( 2049.0286s, 0.24 % of self, 30.03 % of total)
|--sddk::FFT3D::transform_xy ( 1546.6063s, 75.48 %)
|--sddk::FFT3D::transform_z (  497.4085s, 24.28 %)
sddk::FFT3D::transform_z (  497.4085s, 38.27 % of self, 7.29 % of total)
|--sddk::FFT3D::transform_z_serial (  307.0507s, 61.73 %)
sddk::wave_functions::orthogonalize (  581.6305s, 25.15 % of self, 8.52 % of total)
|--sddk::wave_functions::inner (  423.0740s, 72.74 %)
|--sddk::wave_functions::transform (   12.3046s, 2.12 %)
sirius::Band::apply_h_o ( 2672.2598s, 0.01 % of self, 39.16 % of total)
|--sirius::Local_operator::apply_h ( 1609.7418s, 60.24 %)
|--sirius::Non_local_operator::apply (  565.2345s, 21.15 %)
|--sirius::Beta_projectors_base::inner (  383.9018s, 14.37 %)
|--sirius::Beta_projectors_base::generate (  113.0632s, 4.23 %)
sirius::Band::diag_pseudo_potential ( 5520.9756s, 0.02 % of self, 80.91 % of total)
|--sirius::Band::diag_pseudo_potential_davidson ( 5507.9032s, 99.76 %)
|--sirius::Local_operator::prepare (    6.5139s, 0.12 %)
|--sddk::FFT3D::prepare (    5.1752s, 0.09 %)
|--sirius::Non_local_operator::Non_local_operator (    0.0940s, 0.00 %)
sirius::Band::diag_pseudo_potential_davidson ( 5507.9032s, 1.11 % of self, 80.72 % of total)
|--sirius::Band::diag_pseudo_potential_davidson|iter ( 5064.3251s, 91.95 %)
|--sirius::Band::get_h_diag (  111.1058s, 2.02 %)
|--sirius::Band::diag_pseudo_potential_davidson|alloc (  109.3247s, 1.98 %)
|--sirius::Band::get_o_diag (  106.3898s, 1.93 %)
|--sirius::Beta_projectors_base::dismiss (   55.6841s, 1.01 %)
|--sirius::Band::diag_pseudo_potential_davidson|wf (    0.2066s, 0.00 %)
sirius::Band::diag_pseudo_potential_davidson|alloc (  109.3247s, 89.17 % of self, 1.60 % of total)
|--sirius::Beta_projectors_base::prepare (   11.8405s, 10.83 %)
sirius::Band::diag_pseudo_potential_davidson|iter ( 5064.3251s, 0.01 % of self, 74.22 % of total)
|--sirius::Band::apply_h_o ( 2604.4548s, 51.43 %)
|--sirius::Band::diag_pseudo_potential_davidson|evp ( 1477.3786s, 29.17 %)
|--sddk::wave_functions::orthogonalize (  570.0011s, 11.26 %)
|--sirius::Band::residuals (  219.0690s, 4.33 %)
|--sirius::Band::set_subspace_mtrx (  183.5624s, 3.62 %)
|--sirius::Band::diag_pseudo_potential_davidson|update_phi (    9.4606s, 0.19 %)
sirius::Band::initialize_subspace (  169.3026s, 0.00 % of self, 2.48 % of total)
|--sirius::Band::initialize_subspace|kp (  169.2521s, 99.97 %)
|--sirius::Local_operator::prepare (    0.0495s, 0.03 %)
sirius::Band::initialize_subspace|kp (  169.2521s, 13.17 % of self, 2.48 % of total)
|--sirius::Band::apply_h_o (   67.8049s, 40.06 %)
|--sddk::matrix_storage::matrix_storage (   48.8757s, 28.88 %)
|--sirius::Band::initialize_subspace|kp|wf (   12.3188s, 7.28 %)
|--sddk::wave_functions::orthogonalize (   11.6294s, 6.87 %)
|--sirius::Band::set_subspace_mtrx (    5.3538s, 3.16 %)
|--sirius::Beta_projectors_base::prepare (    0.4042s, 0.24 %)
|--sirius::Local_operator::prepare (    0.2195s, 0.13 %)
|--sddk::wave_functions::transform (    0.1801s, 0.11 %)
|--sddk::FFT3D::prepare (    0.1663s, 0.10 %)
|--sirius::Beta_projectors_base::dismiss (    0.0048s, 0.00 %)
|--sirius::Non_local_operator::Non_local_operator (    0.0040s, 0.00 %)
sirius::Band::residuals (  219.0690s, 1.70 % of self, 3.21 % of total)
|--sirius::Band::residuals_aux (  198.9820s, 90.83 %)
|--sddk::wave_functions::transform (   16.3618s, 7.47 %)
sirius::Band::set_subspace_mtrx (  188.9162s, 2.39 % of self, 2.77 % of total)
|--sddk::wave_functions::inner (  184.4075s, 97.61 %)
sirius::Band::solve_for_kset ( 5657.8622s, 0.00 % of self, 82.92 % of total)
|--sirius::Band::diag_pseudo_potential ( 5520.9756s, 97.58 %)
|--sirius::K_point_set::sync_band_energies (  135.2152s, 2.39 %)
|--sirius::Local_operator::prepare (    1.6166s, 0.03 %)
sirius::Density::add_k_point_contribution_dm (  147.2736s, 2.72 % of self, 2.16 % of total)
|--sirius::Beta_projectors_base::inner (  119.1205s, 80.88 %)
|--sirius::Beta_projectors_base::generate (   12.5444s, 8.52 %)
|--sirius::Beta_projectors_base::prepare (   11.2361s, 7.63 %)
|--sirius::Beta_projectors_base::dismiss (    0.3672s, 0.25 %)
sirius::Density::add_k_point_contribution_rg (  552.8171s, 1.81 % of self, 8.10 % of total)
|--sddk::FFT3D::transform (  537.7392s, 97.27 %)
|--sddk::FFT3D::prepare (    5.0744s, 0.92 %)
sirius::Density::generate_valence (  792.0184s, 10.95 % of self, 11.61 % of total)
|--sirius::Density::add_k_point_contribution_rg (  552.8171s, 69.80 %)
|--sirius::Density::add_k_point_contribution_dm (  147.2736s, 18.59 %)
|--sirius::Density::augment (    4.6513s, 0.59 %)
|--sirius::Smooth_periodic_function::fft_transform (    0.2994s, 0.04 %)
|--sddk::FFT3D::prepare (    0.1117s, 0.01 %)
|--sirius::Smooth_periodic_function::gather_f_pw (    0.0759s, 0.01 %)
|--sirius::Density::symmetrize_density_matrix (    0.0333s, 0.00 %)
|--sddk::matrix_storage::remap_forward (    0.0087s, 0.00 %)
sirius::Local_operator::apply_h ( 1609.7418s, 6.19 % of self, 23.59 % of total)
|--sddk::FFT3D::transform ( 1510.1478s, 93.81 %)
|--sddk::matrix_storage::remap_forward (    0.0180s, 0.00 %)
|--sddk::matrix_storage::remap_backward (    0.0036s, 0.00 %)

     General routines

     Parallel routines

   This run was terminated on:  12:32:54   9Aug2017

   JOB DONE.
Note: The following floating-point exceptions are signalling: IEEE_UNDERFLOW_FLAG IEEE_DENORMAL
Note: The following floating-point exceptions are signalling: IEEE_UNDERFLOW_FLAG IEEE_DENORMAL
Note: The following floating-point exceptions are signalling: IEEE_UNDERFLOW_FLAG IEEE_DENORMAL
Note: The following floating-point exceptions are signalling: IEEE_UNDERFLOW_FLAG IEEE_DENORMAL